2
frame=0 time_ps=0.000000 energy_hartree=-0.0015277188 Properties=species:S:1:pos_bohr:R:3
H 0.02192145 -0.05635640 0.14690666
H -0.05412372 0.09228139 1.19760248
2
frame=1 time_ps=0.005000 energy_hartree=-0.0005016690 Properties=species:S:1:pos_bohr:R:3
H -1.47520820 -1.03583085 1.33740719
H -0.30285068 0.52464681 0.11699616
2
frame=2 time_ps=0.010000 energy_hartree=-0.0013138232 Properties=species:S:1:pos_bohr:R:3
H -2.18716251 -1.73871015 0.93540689
H -1.47387155 -0.19262185 1.71495760
2
frame=3 time_ps=0.015000 energy_hartree=-0.0015585974 Properties=species:S:1:pos_bohr:R:3
H -2.44614458 -0.31540012 2.21262217
H -2.58639769 0.03682049 3.23041126
2
frame=4 time_ps=0.020000 energy_hartree=-0.0002467970 Properties=species:S:1:pos_bohr:R:3
H -0.72695331 0.52740043 3.42929209
H -3.07140711 -0.15839444 3.55100502
2
frame=5 time_ps=0.025000 energy_hartree=0.0007633359 Properties=species:S:1:pos_bohr:R:3
H -2.45529314 1.25989912 4.46235085
H -0.00900903 0.05158027 2.28168950
2
frame=6 time_ps=0.030000 energy_hartree=-0.0003138089 Properties=species:S:1:pos_bohr:R:3
H -4.00721352 0.33843360 4.33851788
H 2.98072868 0.12180501 2.39522231
2
frame=7 time_ps=0.035000 energy_hartree=-0.0001629191 Properties=species:S:1:pos_bohr:R:3
H -4.76113527 -0.00348482 4.40784427
H 5.08155264 -0.07955838 0.00010210
2
frame=8 time_ps=0.040000 energy_hartree=-0.0001629283 Properties=species:S:1:pos_bohr:R:3
H -5.30497831 0.25279388 5.05174092
H 6.97581576 -0.12480411 -0.98523118
2
frame=9 time_ps=0.045000 energy_hartree=-0.0001629283 Properties=species:S:1:pos_bohr:R:3
H -5.24817710 -0.12325213 7.01928262
H 8.54087361 0.14496202 -1.35792245
2
frame=10 time_ps=0.050000 energy_hartree=-0.0001629283 Properties=species:S:1:pos_bohr:R:3
H -5.22474872 -0.99094466 8.59384068
H 9.48258556 -0.24017837 -1.15519475
2
frame=11 time_ps=0.055000 energy_hartree=-0.0001629283 Properties=species:S:1:pos_bohr:R:3
H -4.36883466 -1.41909813 9.01362143
H 11.22189065 0.00855641 -0.67282479
2
frame=12 time_ps=0.060000 energy_hartree=-0.0001629283 Properties=species:S:1:pos_bohr:R:3
H -2.47779880 -1.07476139 9.28491489
H 13.87213542 0.37848642 0.76355582
2
frame=13 time_ps=0.065000 energy_hartree=-0.0001629283 Properties=species:S:1:pos_bohr:R:3
H -0.97089233 -1.06386686 10.44959565
H 15.16258424 0.47446389 3.36584894
2
frame=14 time_ps=0.070000 energy_hartree=-0.0001629283 Properties=species:S:1:pos_bohr:R:3
H -0.01786100 0.04547921 9.65165828
H 15.60356046 0.32685753 4.94606270
2
frame=15 time_ps=0.075000 energy_hartree=-0.0001629283 Properties=species:S:1:pos_bohr:R:3
H 1.38877538 0.80738740 7.67833969
H 14.84608932 -1.27684887 5.66879766
2
frame=16 time_ps=0.080000 energy_hartree=-0.0001608993 Properties=species:S:1:pos_bohr:R:3
H 3.43395502 0.59180308 7.18482216
H 12.29920968 -1.60763883 6.03690171
2
frame=17 time_ps=0.085000 energy_hartree=-0.0000742429 Properties=species:S:1:pos_bohr:R:3
H 3.41166404 1.61539599 9.18441073
H 9.73583646 -1.78450813 5.98439149
2
frame=18 time_ps=0.090000 energy_hartree=-0.0001443497 Properties=species:S:1:pos_bohr:R:3
H 2.55642130 2.99367376 11.04499826
H 8.70323230 -1.70984728 6.41899429
2
frame=19 time_ps=0.095000 energy_hartree=-0.0001629283 Properties=species:S:1:pos_bohr:R:3
H -0.11989689 4.33438593 11.04179217
H 8.17571704 -3.06295261 8.08739564
