2
frame=0 time_ps=0.000000 energy_hartree=-0.0001415342 Properties=species:S:1:pos_bohr:R:3
H -4.56732442 0.06900923 4.39672480
H 4.84729720 -0.15695529 0.02503611
2
frame=1 time_ps=0.005000 energy_hartree=-0.0000303152 Properties=species:S:1:pos_bohr:R:3
H -3.51701246 0.71755797 4.44914671
H 2.77736514 -1.93463743 0.05185457
2
frame=2 time_ps=0.010000 energy_hartree=-0.0001471770 Properties=species:S:1:pos_bohr:R:3
H -3.76672433 -1.25020754 5.27538962
H 2.82663886 -4.58457537 -1.38141583
2
frame=3 time_ps=0.015000 energy_hartree=-0.0001409089 Properties=species:S:1:pos_bohr:R:3
H -2.95160337 -1.29348134 5.50850427
H 1.79927308 -6.75362999 -3.47227935
2
frame=4 time_ps=0.020000 energy_hartree=-0.0001409089 Properties=species:S:1:pos_bohr:R:3
H -4.10897155 -0.95967543 5.22646890
H 0.55282327 -8.25749471 -6.20971081
2
frame=5 time_ps=0.025000 energy_hartree=-0.0001409089 Properties=species:S:1:pos_bohr:R:3
H -4.31442044 -0.77998475 5.80158298
H 1.45829899 -8.92816550 -9.34805979
2
frame=6 time_ps=0.030000 energy_hartree=-0.0001409089 Properties=species:S:1:pos_bohr:R:3
H -3.53957738 -1.15707701 7.14832300
H 3.15495835 -9.21595164 -10.48968342
2
frame=7 time_ps=0.035000 energy_hartree=-0.0001409089 Properties=species:S:1:pos_bohr:R:3
H -2.74583504 -1.64321933 9.91853009
H 5.22674869 -10.02520672 -13.26453383
2
frame=8 time_ps=0.040000 energy_hartree=-0.0001409089 Properties=species:S:1:pos_bohr:R:3
H -1.65258111 -2.36904718 12.31627816
H 7.18552186 -9.67978135 -16.35941235
2
frame=9 time_ps=0.045000 energy_hartree=-0.0001409089 Properties=species:S:1:pos_bohr:R:3
H -2.05048177 -3.96308346 13.99757999
H 8.69038544 -9.42106803 -17.37455155
2
frame=10 time_ps=0.050000 energy_hartree=-0.0001409089 Properties=species:S:1:pos_bohr:R:3
H -3.60974876 -6.28702807 15.12827428
H 8.45155831 -10.69925120 -18.76872052
2
frame=11 time_ps=0.055000 energy_hartree=-0.0001409089 Properties=species:S:1:pos_bohr:R:3
H -5.58950475 -8.84328537 18.04267855
H 9.77134037 -10.48208000 -19.77797379
2
frame=12 time_ps=0.060000 energy_hartree=-0.0001409089 Properties=species:S:1:pos_bohr:R:3
H -6.14645958 -10.02326667 20.10758410
H 10.11820388 -8.91494108 -19.64114843
2
frame=13 time_ps=0.065000 energy_hartree=-0.0001409089 Properties=species:S:1:pos_bohr:R:3
H -6.78338088 -9.23090616 20.69020472
H 11.36859738 -6.09778441 -20.69244664
2
frame=14 time_ps=0.070000 energy_hartree=-0.0001409089 Properties=species:S:1:pos_bohr:R:3
H -7.61805305 -8.02854715 20.64330471
H 13.71708998 -5.02624859 -21.34369800
2
frame=15 time_ps=0.075000 energy_hartree=-0.0001409089 Properties=species:S:1:pos_bohr:R:3
H -8.64082360 -6.50491518 20.08830254
H 16.74304130 -3.79069111 -22.38024714
2
frame=16 time_ps=0.080000 energy_hartree=-0.0001409089 Properties=species:S:1:pos_bohr:R:3
H -10.11263153 -5.88608149 19.67260374
H 19.43310980 -2.01439508 -24.81520579
2
frame=17 time_ps=0.085000 energy_hartree=-0.0001409089 Properties=species:S:1:pos_bohr:R:3
H -11.92818250 -4.51846588 19.45487477
H 19.50394822 -2.13175686 -26.49187961
2
frame=18 time_ps=0.090000 energy_hartree=-0.0001409089 Properties=species:S:1:pos_bohr:R:3
H -14.29016174 -4.02773048 20.30372652
H 19.22633270 -3.23322582 -28.34798060
2
frame=19 time_ps=0.095000 energy_hartree=-0.0001409089 Properties=species:S:1:pos_bohr:R:3
H -16.17578609 -4.27697918 21.26454972
H 18.40587255 -4.89210578 -30.66158564
