2
energy=-1.1372759415 Properties=species:S:1:pos:R:3:forces:R:3 charge=0 mult=1 method=RHF/vqe/JW-jordan_wigner
H 0.00000000 0.00000000 0.00000000 -0.00000000 -0.00000000 0.02845406
H 0.00000000 0.00000000 1.40000000 -0.00000000 -0.00000000 -0.02845406
2
energy=-1.1372788118 Properties=species:S:1:pos:R:3:forces:R:3 charge=0 mult=1 method=RHF/vqe/JW-jordan_wigner/trajectory-FP[0]
H 0.01005842 -0.01056839 0.05123381 -0.00002117 -0.00041014 0.01750172
H 0.00839201 -0.04285355 1.42892760 0.00002117 0.00041014 -0.01750172
2
energy=-1.1355320721 Properties=species:S:1:pos:R:3:forces:R:3 charge=0 mult=1 method=RHF/vqe/JW-jordan_wigner/trajectory-FP[1]
H 0.10432000 0.07576648 -0.05629882 -0.00864909 -0.00528607 0.06141583
H -0.10123372 -0.04986196 1.40330608 0.00864909 0.00528607 -0.06141583
