2
frame=0 time_ps=0.000000 energy_hartree=-0.0355552069 Properties=species:S:1:pos_bohr:R:3
H -0.08190527 -0.13182140 0.17516036
H 0.04661672 0.14184188 1.22234162
2
frame=1 time_ps=0.005000 energy_hartree=0.0349684366 Properties=species:S:1:pos_bohr:R:3
H -2.70408882 -2.41499069 -1.45224636
H 0.92294350 1.87790189 2.95964359
2
frame=2 time_ps=0.010000 energy_hartree=0.0506918973 Properties=species:S:1:pos_bohr:R:3
H -1.09798984 -5.66500992 -0.68905531
H -2.56613034 3.70777311 3.39241402
2
frame=3 time_ps=0.015000 energy_hartree=0.0507610667 Properties=species:S:1:pos_bohr:R:3
H -1.28333932 -8.85652241 -1.00833055
H -3.75228772 8.55203904 6.50435786
2
frame=4 time_ps=0.020000 energy_hartree=0.0507610667 Properties=species:S:1:pos_bohr:R:3
H 0.88215812 -10.69602799 -1.26494129
H -4.68360174 11.03913035 8.29823577
2
frame=5 time_ps=0.025000 energy_hartree=0.0507610667 Properties=species:S:1:pos_bohr:R:3
H 1.56201960 -10.43346070 -0.76121135
H -4.02940335 11.71903552 7.55825076
2
frame=6 time_ps=0.030000 energy_hartree=0.0507610667 Properties=species:S:1:pos_bohr:R:3
H 1.80131439 -11.23432572 -0.51486129
H -2.83087984 11.66865910 7.30160184
2
frame=7 time_ps=0.035000 energy_hartree=0.0507610667 Properties=species:S:1:pos_bohr:R:3
H 2.26744910 -11.56046412 -0.29290704
H -1.95011030 11.45151403 4.75385310
2
frame=8 time_ps=0.040000 energy_hartree=0.0507610667 Properties=species:S:1:pos_bohr:R:3
H 2.47105886 -11.29437447 0.44109185
H -0.80329960 11.39645733 3.67841915
2
frame=9 time_ps=0.045000 energy_hartree=0.0507610667 Properties=species:S:1:pos_bohr:R:3
H 2.98121369 -11.66446812 2.46328424
H 0.30840816 11.66026903 3.25107847
2
frame=10 time_ps=0.050000 energy_hartree=0.0507610667 Properties=species:S:1:pos_bohr:R:3
H 3.27961469 -12.52855192 4.07098918
H 0.97514841 11.27151828 3.42065964
2
frame=11 time_ps=0.055000 energy_hartree=0.0507610667 Properties=species:S:1:pos_bohr:R:3
H 4.30230887 -12.95451686 4.51087419
H 2.54767282 11.51806416 3.88292460
2
frame=12 time_ps=0.060000 energy_hartree=0.0507610667 Properties=species:S:1:pos_bohr:R:3
H 6.29450083 -12.60885270 4.79436347
H 5.09675991 11.88666470 5.30711119
2
frame=13 time_ps=0.065000 energy_hartree=0.0507610667 Properties=species:S:1:pos_bohr:R:3
H 7.86276341 -12.59715383 5.96644265
H 6.32585386 11.98183620 7.90200865
2
frame=14 time_ps=0.070000 energy_hartree=0.0507610667 Properties=species:S:1:pos_bohr:R:3
H 8.85300815 -11.48731891 5.17299227
H 6.72961770 11.83374269 9.47773588
2
frame=15 time_ps=0.075000 energy_hartree=0.0507610667 Properties=species:S:1:pos_bohr:R:3
H 10.28221698 -10.72511163 3.20239429
H 5.94957872 10.22974191 10.19774955
2
frame=16 time_ps=0.080000 energy_hartree=0.0507610667 Properties=species:S:1:pos_bohr:R:3
H 12.34011383 -10.94030673 2.71062714
H 3.38998085 9.89856009 10.56410187
2
frame=17 time_ps=0.085000 energy_hartree=0.0507610667 Properties=species:S:1:pos_bohr:R:3
H 12.41728332 -9.94589984 4.69428463
H 0.72714586 9.75087928 10.52752296
2
frame=18 time_ps=0.090000 energy_hartree=0.0507610667 Properties=species:S:1:pos_bohr:R:3
H 11.52558377 -8.52577402 6.60991624
H -0.26900117 9.78369344 10.90708348
2
frame=19 time_ps=0.095000 energy_hartree=0.0507610667 Properties=species:S:1:pos_bohr:R:3
H 8.86331394 -7.18969256 6.60966934
H -0.81056943 8.43521972 12.57252429
