2
frame=0 time_ps=0.000000 energy_hartree=-0.0462438562 Properties=species:S:1:pos_bohr:R:3
H 0.19381022 0.07249405 -0.07502528
H -0.23425481 -0.07739691 1.48883981
2
frame=1 time_ps=0.005000 energy_hartree=-0.0454977255 Properties=species:S:1:pos_bohr:R:3
H -1.13757221 -1.12585576 0.55737733
H 0.07750751 -0.00817949 0.93567767
2
frame=2 time_ps=0.010000 energy_hartree=0.1874274275 Properties=species:S:1:pos_bohr:R:3
H -14.10643816 -7.44130844 14.85367741
H 12.84593982 1.68957182 -13.96765023
2
frame=3 time_ps=0.015000 energy_hartree=0.1874274275 Properties=species:S:1:pos_bohr:R:3
H -31.57998544 -13.74950045 33.70389807
H 30.10724848 5.78543902 -34.67562808
2
frame=4 time_ps=0.020000 energy_hartree=0.1874274275 Properties=species:S:1:pos_bohr:R:3
H -43.83023250 -17.21543859 44.71396911
H 39.95366781 8.08131778 -48.70516708
2
frame=5 time_ps=0.025000 energy_hartree=0.1874274275 Properties=species:S:1:pos_bohr:R:3
H -50.76385510 -19.34040730 52.13809193
H 47.58730885 9.71530779 -58.69252435
2
frame=6 time_ps=0.030000 energy_hartree=0.1874274275 Properties=species:S:1:pos_bohr:R:3
H -54.06985218 -21.11534516 57.63897522
H 53.36481285 10.82537429 -63.98828314
2
frame=7 time_ps=0.035000 energy_hartree=0.1874274275 Properties=species:S:1:pos_bohr:R:3
H -55.75125313 -22.44932663 62.92880123
H 57.91175729 10.86395903 -69.28275878
2
frame=8 time_ps=0.040000 energy_hartree=0.1874274275 Properties=species:S:1:pos_bohr:R:3
H -56.15926021 -23.68939452 66.85479260
H 61.37177976 11.72362478 -73.90585627
2
frame=9 time_ps=0.045000 energy_hartree=0.1874274275 Properties=species:S:1:pos_bohr:R:3
H -57.46772095 -25.59532768 69.46301315
H 63.78721716 12.29423836 -75.84791059
2
frame=10 time_ps=0.050000 energy_hartree=0.1874274275 Properties=species:S:1:pos_bohr:R:3
H -59.57927061 -28.10844701 71.15590482
H 64.10071055 11.20523307 -77.80425262
2
frame=11 time_ps=0.055000 energy_hartree=0.1874274275 Properties=species:S:1:pos_bohr:R:3
H -61.89400201 -30.77944842 74.41129659
H 65.75545360 11.53714297 -79.15449158
2
frame=12 time_ps=0.060000 energy_hartree=0.1874274275 Properties=species:S:1:pos_bohr:R:3
H -62.65413408 -32.02901382 76.68301348
H 66.30550877 13.17387590 -79.22448116
2
frame=13 time_ps=0.065000 energy_hartree=0.1874274275 Properties=species:S:1:pos_bohr:R:3
H -63.41428056 -31.27885503 77.39105525
H 67.67913286 16.03324241 -80.40122754
2
frame=14 time_ps=0.070000 energy_hartree=0.1874274275 Properties=species:S:1:pos_bohr:R:3
H -64.32368387 -30.10209604 77.42022899
H 70.10236290 17.13037914 -81.12858871
2
frame=15 time_ps=0.075000 energy_hartree=0.1874274275 Properties=species:S:1:pos_bohr:R:3
H -65.39179464 -28.59399123 76.91136452
H 73.17365084 18.38146738 -82.21128996
2
frame=16 time_ps=0.080000 energy_hartree=0.1874274275 Properties=species:S:1:pos_bohr:R:3
H -66.89109578 -27.98457755 76.52365723
H 75.89120624 20.16718410 -84.67424733
2
frame=17 time_ps=0.085000 energy_hartree=0.1874274275 Properties=species:S:1:pos_bohr:R:3
H -68.72331063 -26.62267126 76.32291564
H 75.97872026 20.05553344 -86.36790312
2
frame=18 time_ps=0.090000 energy_hartree=0.1874274275 Properties=species:S:1:pos_bohr:R:3
H -71.09538751 -26.13540055 77.18208128
H 75.71121859 18.95753166 -88.23431621
2
frame=19 time_ps=0.095000 energy_hartree=0.1874274275 Properties=species:S:1:pos_bohr:R:3
H -72.98714649 -26.38674745 78.14914724
H 74.89689848 17.30075575 -90.55415860
