2
energy=-1.1167143251 Properties=species:S:1:pos:R:3:forces:R:3 charge=0 mult=1 method=RHF/vqe/JW-jordan_wigner
H 0.00000000 0.00000000 0.00000000 -0.00000000 -0.00000000 0.02845406
H 0.00000000 0.00000000 1.40000000 -0.00000000 -0.00000000 -0.02845406
2
energy=-0.9473079311 Properties=species:S:1:pos:R:3:forces:R:3 charge=0 mult=1 method=RHF/HF-SCF-trajectory[0]
H 0.00000000 0.00000000 0.30000000 -0.00000000 -0.00000000 -0.88607702
H 0.00000000 0.00000000 1.10000000 -0.00000000 -0.00000000 0.88607702
2
energy=-1.0343390808 Properties=species:S:1:pos:R:3:forces:R:3 charge=0 mult=1 method=RHF/HF-SCF-trajectory[1]
H 0.00000000 0.00000000 0.23636364 -0.00000000 -0.00000000 -0.51189363
H 0.00000000 0.00000000 1.16363636 -0.00000000 -0.00000000 0.51189363
2
energy=-1.0834300543 Properties=species:S:1:pos:R:3:forces:R:3 charge=0 mult=1 method=RHF/HF-SCF-trajectory[2]
H 0.00000000 0.00000000 0.17272727 -0.00000000 -0.00000000 -0.27680101
H 0.00000000 0.00000000 1.22727273 -0.00000000 -0.00000000 0.27680101
2
energy=-1.1082417278 Properties=species:S:1:pos:R:3:forces:R:3 charge=0 mult=1 method=RHF/HF-SCF-trajectory[3]
H 0.00000000 0.00000000 0.10909091 -0.00000000 -0.00000000 -0.12371907
H 0.00000000 0.00000000 1.29090909 -0.00000000 -0.00000000 0.12371907
2
energy=-1.1171016180 Properties=species:S:1:pos:R:3:forces:R:3 charge=0 mult=1 method=RHF/HF-SCF-trajectory[4]
H 0.00000000 0.00000000 0.04545455 -0.00000000 -0.00000000 -0.02239387
H 0.00000000 0.00000000 1.35454545 -0.00000000 -0.00000000 0.02239387
2
energy=-1.1153729350 Properties=species:S:1:pos:R:3:forces:R:3 charge=0 mult=1 method=RHF/HF-SCF-trajectory[5]
H 0.00000000 0.00000000 -0.01818182 -0.00000000 -0.00000000 0.04500255
H 0.00000000 0.00000000 1.41818182 -0.00000000 -0.00000000 -0.04500255
2
energy=-1.1065940483 Properties=species:S:1:pos:R:3:forces:R:3 charge=0 mult=1 method=RHF/HF-SCF-trajectory[6]
H 0.00000000 0.00000000 -0.08181818 -0.00000000 -0.00000000 0.08993859
H 0.00000000 0.00000000 1.48181818 -0.00000000 -0.00000000 -0.08993859
2
energy=-1.0931050309 Properties=species:S:1:pos:R:3:forces:R:3 charge=0 mult=1 method=RHF/HF-SCF-trajectory[7]
H 0.00000000 0.00000000 -0.14545455 -0.00000000 -0.00000000 0.12004228
H 0.00000000 0.00000000 1.54545455 -0.00000000 -0.00000000 -0.12004228
2
energy=-1.0764532755 Properties=species:S:1:pos:R:3:forces:R:3 charge=0 mult=1 method=RHF/HF-SCF-trajectory[8]
H 0.00000000 0.00000000 -0.20909091 -0.00000000 -0.00000000 0.14029159
H 0.00000000 0.00000000 1.60909091 -0.00000000 -0.00000000 -0.14029159
2
energy=-1.0576787879 Properties=species:S:1:pos:R:3:forces:R:3 charge=0 mult=1 method=RHF/HF-SCF-trajectory[9]
H 0.00000000 0.00000000 -0.27272727 -0.00000000 -0.00000000 0.15379810
H 0.00000000 0.00000000 1.67272727 -0.00000000 -0.00000000 -0.15379810
2
energy=-1.0375098324 Properties=species:S:1:pos:R:3:forces:R:3 charge=0 mult=1 method=RHF/HF-SCF-trajectory[10]
H 0.00000000 0.00000000 -0.33636364 -0.00000000 -0.00000000 0.16244504
H 0.00000000 0.00000000 1.73636364 -0.00000000 -0.00000000 -0.16244504
2
energy=-1.0164857215 Properties=species:S:1:pos:R:3:forces:R:3 charge=0 mult=1 method=RHF/HF-SCF-trajectory[11]
H 0.00000000 0.00000000 -0.40000000 -0.00000000 -0.00000000 0.16738890
H 0.00000000 0.00000000 1.80000000 -0.00000000 -0.00000000 -0.16738890
2
energy=-0.5661011965 Properties=species:S:1:pos:R:3:forces:R:3 charge=0 mult=1 method=RHF/HF-SCF-trajectory[2]
H 7.86276341 -12.59715383 5.96644265 -0.00005098 0.00081524 0.00006420
H 6.32585386 11.98183620 7.90200865 0.00005098 -0.00081524 -0.00006420
2
energy=-0.5667520138 Properties=species:S:1:pos:R:3:forces:R:3 charge=0 mult=1 method=RHF/HF-SCF-trajectory[1]
H 2.26744910 -11.56046412 -0.29290704 -0.00015382 0.00083929 0.00018406
H -1.95011030 11.45151403 4.75385310 0.00015382 -0.00083929 -0.00018406
2
energy=-0.1629329982 Properties=species:S:1:pos:R:3:forces:R:3 charge=0 mult=1 method=RHF/HF-SCF-trajectory[3]
H -72.98714649 -26.38674745 78.14914724 0.00001239 0.00000366 -0.00001413
H 74.89689848 17.30075575 -90.55415860 -0.00001239 -0.00000366 0.00001413
2
energy=-0.1633077020 Properties=species:S:1:pos:R:3:forces:R:3 charge=0 mult=1 method=RHF/HF-SCF-trajectory[2]
H -63.41428056 -31.27885503 77.39105525 0.00001405 0.00000507 -0.00001691
H 67.67913286 16.03324241 -80.40122754 -0.00001405 -0.00000507 0.00001691
