2
frame=0 time_ps=0.000000 energy_hartree=-0.0032671626 Properties=species:S:1:pos_bohr:R:3
H 0.06393580 -0.08132753 0.09257561
H -0.08160781 0.09130398 1.30424600
2
frame=1 time_ps=0.000750 energy_hartree=-0.0033562479 Properties=species:S:1:pos_bohr:R:3
H 0.23331445 -0.40377260 0.44595650
H -0.25851545 0.37960690 0.91512259
2
frame=2 time_ps=0.001500 energy_hartree=-0.0025707323 Properties=species:S:1:pos_bohr:R:3
H 0.28442932 -0.71572819 0.78224852
H -0.37328484 0.53998085 0.51936697
2
frame=3 time_ps=0.002250 energy_hartree=-0.0010434417 Properties=species:S:1:pos_bohr:R:3
H 0.20073114 -0.76266577 1.07262862
H -0.37057419 0.51048317 0.13307958
