2
frame=0 time_ps=0.000000 energy_hartree=0.0004254766 Properties=species:S:1:pos_bohr:R:3
H -0.02917751 0.00678879 -0.07812883
H 0.04690214 0.00604697 1.47189635
2
frame=1 time_ps=0.000750 energy_hartree=0.0010675352 Properties=species:S:1:pos_bohr:R:3
H -0.11106374 0.05515868 -0.15331995
H 0.28484118 0.07867551 1.60781082
2
frame=2 time_ps=0.001500 energy_hartree=0.0010079162 Properties=species:S:1:pos_bohr:R:3
H -0.18680569 0.17127964 -0.12060198
H 0.42199146 0.21668493 1.55536808
2
frame=3 time_ps=0.002250 energy_hartree=0.0002393815 Properties=species:S:1:pos_bohr:R:3
H -0.19808869 0.27499748 0.10269061
H 0.47358684 0.35566996 1.36632130
