2
frame=0 time_ps=0.000000 energy_hartree=-0.0009932870 Properties=species:S:1:pos_bohr:R:3
H -0.04237323 -0.04707379 -0.02895862
H 0.03866024 0.04416359 1.42345457
2
frame=1 time_ps=0.000750 energy_hartree=-0.0010027011 Properties=species:S:1:pos_bohr:R:3
H -0.10414080 -0.21411924 -0.04586095
H 0.19598239 0.15101324 1.33006194
2
frame=2 time_ps=0.001500 energy_hartree=-0.0015359980 Properties=species:S:1:pos_bohr:R:3
H -0.07755033 -0.34201617 0.04519348
H 0.30915956 0.08200339 0.95040219
2
frame=3 time_ps=0.002250 energy_hartree=-0.0011298263 Properties=species:S:1:pos_bohr:R:3
H -0.11498097 -0.56203124 0.13922287
H 0.31176160 -0.02631436 0.51622256
