2
energy=-0.3798113876 Properties=species:S:1:pos:R:3:forces:R:3 charge=0 mult=1 method=RHF/vqe/JW-jordan_wigner
H 0.00000000 0.00000000 0.00000000 -0.00000000 -0.00000000 0.02845406
H 0.00000000 0.00000000 1.40000000 -0.00000000 -0.00000000 -0.02845406
2
energy=-1.1307218543 Properties=species:S:1:pos:R:3:forces:R:3 charge=0 mult=1 method=RHF/vqe/JW-jordan_wigner/trajectory-FP[0]
H -0.12873969 -0.08507250 -0.13578544 0.01651465 0.00203188 0.09082986
H 0.15242497 -0.05047945 1.41060838 -0.01651465 -0.00203188 -0.09082986
2
energy=-1.1368539596 Properties=species:S:1:pos:R:3:forces:R:3 charge=0 mult=1 method=RHF/vqe/JW-jordan_wigner/trajectory-FP[1]
H -0.19808869 0.27499748 0.10269061 0.02047454 0.00245912 0.03851898
H 0.47358684 0.35566996 1.36632130 -0.02047454 -0.00245912 -0.03851898
2
energy=-1.1364678787 Properties=species:S:1:pos:R:3:forces:R:3 charge=0 mult=1 method=RHF/vqe/JW-jordan_wigner/trajectory-FP[0]
H -0.20778548 -0.06463808 0.02050463 -0.00258539 -0.00172126 -0.00797442
H 0.19441425 0.20313210 1.26105668 0.00258539 0.00172126 0.00797442
2
energy=-1.1363361815 Properties=species:S:1:pos:R:3:forces:R:3 charge=0 mult=1 method=RHF/vqe/JW-jordan_wigner/trajectory-FP[0]
H -0.10414080 -0.21411924 -0.04586095 0.01087246 0.01322752 0.04984507
H 0.19598239 0.15101324 1.33006194 -0.01087246 -0.01322752 -0.04984507
