20
Lattice="19.84414541 0 0 0 7.93765816 0 0 0 3.96882908" Properties=species:S:1:pos:R:3 energy=-0.0285806277 time_ps=0.000000 frame=0 pbc="T T T" comment="QML-FF atomic_amplitude checkpoint round_05; 10xH2; units=Angstrom"
H 2.04810001 1.66630096 2.12903099
H 1.92072907 2.30252812 1.83979809
H 5.61808641 2.04444883 2.03302901
H 6.28840084 1.92438025 1.93580007
H 10.01917765 1.62698133 1.97762939
H 9.82496776 2.34184776 1.99119969
H 14.25450746 2.11490852 1.93321960
H 13.52729611 1.85392056 2.03560949
H 18.13480857 2.24573285 1.96473685
H 17.58465317 1.72309623 2.00409223
H 1.77933589 5.80851769 2.22691018
H 2.18949319 6.09796955 1.74191890
H 5.78918513 5.87458520 2.28507328
H 6.11730212 6.03190205 1.68375580
H 9.68904436 5.70381171 2.03719357
H 10.15510104 6.20267554 1.93163552
H 13.96694126 5.72115783 2.28236613
H 13.81486231 6.18532942 1.68646295
H 18.19845981 5.86205637 2.01803369
H 17.52100192 6.04443088 1.95079539
20
Lattice="19.84414541 0 0 0 7.93765816 0 0 0 3.96882908" Properties=species:S:1:pos:R:3 energy=-0.0311697801 time_ps=0.001000 frame=1 pbc="T T T" comment="QML-FF atomic_amplitude checkpoint round_05; 10xH2; units=Angstrom"
H 1.97691323 1.80132871 2.11596767
H 1.99191585 2.16750037 1.85286141
H 5.74953972 1.91125566 2.18032431
H 6.15694753 2.05757342 1.78850477
H 10.07316933 1.69019944 1.79443850
H 9.77097608 2.27862965 2.17439058
H 14.22503358 1.96370760 2.09047545
H 13.55676999 2.00512148 1.87835363
H 18.09702433 2.17975991 1.93424035
H 17.62243740 1.78906917 2.03458873
H 1.87550032 5.89250034 2.22957447
H 2.09332876 6.01398691 1.73925461
H 5.79844058 5.96005123 2.18059899
H 6.10804667 5.94643602 1.78823009
H 9.90022044 5.63705421 1.84206533
H 9.94392496 6.26943304 2.12676375
H 13.94019286 5.82618807 2.31050017
H 13.84161071 6.08029917 1.65832891
H 18.07568836 5.86982213 1.93409584
H 17.64377337 6.03666511 2.03473324
20
Lattice="19.84414541 0 0 0 7.93765816 0 0 0 3.96882908" Properties=species:S:1:pos:R:3 energy=-0.0299915983 time_ps=0.002500 frame=2 pbc="T T T" comment="QML-FF atomic_amplitude checkpoint round_05; 10xH2; units=Angstrom"
H 2.01143579 1.87554525 2.27348732
H 1.95739330 2.09328383 1.69534176
H 6.06542652 1.74992152 2.29290197
H 5.84106073 2.21890756 1.67592711
H 9.95691598 2.00217759 1.69824204
H 9.88722942 1.96665149 2.27058704
H 13.93978088 1.76695863 2.29777372
H 13.84202270 2.20187045 1.67105536
H 18.05750937 2.06946739 1.91441464
H 17.66195237 1.89936169 2.05441444
H 1.95992750 5.94419834 2.32779371
H 2.00890158 5.96228890 1.64103537
H 5.73931931 5.99059875 2.11985885
H 6.16716793 5.91588850 1.84897023
H 10.11667740 5.87546222 1.69080485
H 9.72746801 6.03102502 2.27802424
H 13.85126865 6.10209432 2.20278426
H 13.93053492 5.80439292 1.76604483
H 18.07868138 5.79905621 1.75002349
H 17.64078035 6.10743103 2.21880560
20
Lattice="19.84414541 0 0 0 7.93765816 0 0 0 3.96882908" Properties=species:S:1:pos:R:3 energy=-0.0273487904 time_ps=0.003500 frame=3 pbc="T T T" comment="QML-FF atomic_amplitude checkpoint round_05; 10xH2; units=Angstrom"
H 2.09855490 1.92439012 2.35309113
H 1.87027418 2.04443896 1.61573796
H 6.21317609 1.81377953 2.14792588
H 5.69331115 2.15504955 1.82090320
H 9.81325955 2.20388376 1.68083137
H 10.03088586 1.76494532 2.28799771
H 13.74431235 1.77565718 2.25071885
H 14.03749123 2.19317190 1.71811023
H 18.10975022 2.12531797 1.83811005
H 17.60971152 1.84351111 2.13071903
H 2.02140680 6.00415820 2.31504798
H 1.94742228 5.90232905 1.65378110
H 5.62992066 5.96713236 2.09444575
H 6.27656659 5.93935488 1.87438334
H 10.09039816 6.11020277 1.84526315
H 9.75374725 5.79628447 2.12356593
H 13.73402698 6.34221273 2.14585154
H 14.04777659 5.56427452 1.82297754
H 18.01134835 5.78690688 1.69758410
H 17.70811339 6.11958036 2.27124498
20
Lattice="19.84414541 0 0 0 7.93765816 0 0 0 3.96882908" Properties=species:S:1:pos:R:3 energy=-0.0289991193 time_ps=0.005000 frame=4 pbc="T T T" comment="QML-FF atomic_amplitude checkpoint round_05; 10xH2; units=Angstrom"
H 2.20462618 2.02931098 2.02689367
H 1.76420290 1.93951810 1.94193541
H 6.25412267 2.05585316 1.71544501
H 5.65236457 1.91297592 2.25338407
H 9.81820869 2.23748792 1.99052973
H 10.02593672 1.73134116 1.97829935
H 13.62365553 1.97540179 2.01068047
H 14.15814804 1.99342730 1.95814861
H 18.06096183 2.11764971 1.76627115
H 17.65849990 1.85117937 2.20255793
H 2.07181227 6.10324516 2.11499586
H 1.89701681 5.80324208 1.85383322
H 5.64286447 5.93625088 1.96699902
H 6.26362278 5.97023637 2.00183007
H 10.06098455 6.36225865 2.07084582
H 9.78316086 5.54422860 1.89798327
H 13.90210011 6.24304931 1.90001765
H 13.87970347 5.66343793 2.06881143
H 17.79408176 5.84994729 1.77237052
H 17.92537997 6.05653995 2.19645856
20
Lattice="19.84414541 0 0 0 7.93765816 0 0 0 3.96882908" Properties=species:S:1:pos:R:3 energy=-0.0279325959 time_ps=0.006000 frame=5 pbc="T T T" comment="QML-FF atomic_amplitude checkpoint round_05; 10xH2; units=Angstrom"
H 2.36095701 2.08018499 1.86511363
H 1.60787207 1.88864409 2.10371545
H 6.00532041 2.13546903 1.59329262
H 5.90116684 1.83336005 2.37553646
H 9.91116710 2.22820524 2.25409062
H 9.93297831 1.74062384 1.71473846
H 13.50577496 2.08250526 1.87830164
H 14.27602861 1.88632382 2.09052744
H 17.95778340 2.07399247 1.78231083
H 17.76167834 1.89483661 2.18651825
H 2.10658673 6.23524581 1.98237602
H 1.86224235 5.67124143 1.98645306
H 5.71474870 5.95914906 1.86866219
H 6.19173855 5.94733819 2.10016689
H 9.93674302 6.24360542 2.13091167
H 9.90740239 5.66288182 1.83791742
H 14.08521832 6.08083713 1.73299443
H 13.69658526 5.82565011 2.23583466
H 17.75533201 5.82158184 1.80932751
H 17.96412972 6.08490541 2.15950158
20
Lattice="19.84414541 0 0 0 7.93765816 0 0 0 3.96882908" Properties=species:S:1:pos:R:3 energy=-0.0317107728 time_ps=0.007500 frame=6 pbc="T T T" comment="QML-FF atomic_amplitude checkpoint round_05; 10xH2; units=Angstrom"
H 2.13586344 2.04054483 1.79250934
H 1.83296565 1.92828425 2.17631974
H 5.65021625 2.05484197 1.85046582
H 6.25627099 1.91398711 2.11836326
H 9.95775270 2.05712056 2.29391713
H 9.88639271 1.91170852 1.67491195
H 13.70725033 2.09676972 1.72457306
H 14.07455325 1.87205937 2.24425603
H 17.76590682 2.13788969 1.68899779
H 17.95355492 1.83093939 2.27983129
H 2.13861562 6.23916562 1.85779155
H 1.83021346 5.66732163 2.11103753
H 5.84534396 6.08893236 1.70017467
H 6.06114328 5.81755488 2.26865441
H 9.69799951 5.99230675 2.13933171
H 10.14614590 5.91418050 1.82949737
H 14.16558453 5.74896049 1.83654687
H 13.61621904 6.15752675 2.13228221
H 17.71818828 5.79701036 1.80569793
H 18.00127346 6.10947688 2.16313115
20
Lattice="19.84414541 0 0 0 7.93765816 0 0 0 3.96882908" Properties=species:S:1:pos:R:3 energy=-0.0253320128 time_ps=0.008500 frame=7 pbc="T T T" comment="QML-FF atomic_amplitude checkpoint round_05; 10xH2; units=Angstrom"
H 1.90509679 2.00254007 1.76766255
H 2.06373229 1.96628901 2.20116653
H 5.53341081 1.96084000 2.13287961
H 6.37307644 2.00798908 1.83594947
H 9.93359774 1.95454124 2.16715103
H 9.91054767 2.01428784 1.80167806
H 13.90336462 2.07165166 1.67326742
H 13.87843895 1.89717742 2.29556166
H 17.65359034 2.10461538 1.69422684
H 18.06587140 1.86421370 2.27460224
H 2.03012268 6.15593548 1.85759823
H 1.93870640 5.75055177 2.11123086
H 5.96997894 6.12247571 1.68707291
H 5.93650830 5.78401153 2.28175618
H 9.50741058 5.83549838 2.20092193
H 10.33673483 6.07098886 1.76790715
H 14.04136324 5.66278121 2.08775182
H 13.74044033 6.24370604 1.88107726
H 17.62078966 5.84567842 1.81433210
H 18.09867208 6.06080883 2.15449698
20
Lattice="19.84414541 0 0 0 7.93765816 0 0 0 3.96882908" Properties=species:S:1:pos:R:3 energy=-0.0248678386 time_ps=0.010000 frame=8 pbc="T T T" comment="QML-FF atomic_amplitude checkpoint round_05; 10xH2; units=Angstrom"
H 1.69163580 2.00694281 1.56563676
H 2.27719329 1.96188627 2.40319232
H 5.84344474 1.83173782 2.23916895
H 6.06304251 2.13709126 1.72966013
H 9.96130905 1.66645593 2.27318060
H 9.88283636 2.30237315 1.69564848
H 14.09652732 2.03210523 1.76234857
H 13.68527626 1.93672385 2.20648051
H 17.67297833 1.97573584 1.89030475
H 18.04648341 1.99309324 2.07852433
H 1.95127226 6.15771904 1.83987071
H 2.01755682 5.74876821 2.12895837
H 6.17882548 6.07806097 1.86753731
H 5.72766176 5.82842628 2.10129177
H 9.67434715 5.75710382 2.09254924
H 10.16979826 6.14938343 1.87627984
H 13.73034071 5.81418247 2.35818756
H 14.05146286 6.09230478 1.61064152
H 17.55451671 5.88095201 1.99747110
H 18.16494502 6.02553524 1.97135799
20
Lattice="19.84414541 0 0 0 7.93765816 0 0 0 3.96882908" Properties=species:S:1:pos:R:3 energy=-0.0295375782 time_ps=0.011000 frame=9 pbc="T T T" comment="QML-FF atomic_amplitude checkpoint round_05; 10xH2; units=Angstrom"
H 1.76492816 1.96810269 1.73181092
H 2.20390092 2.00072639 2.23701816
H 6.19010985 1.78427225 2.10842317
H 5.71637739 2.18455683 1.86040591
H 9.96150319 1.69531944 2.27319654
H 9.88264221 2.27350964 1.69563254
H 14.15017883 2.00479271 1.87934707
H 13.63162474 1.96403637 2.08948201
H 17.58403316 1.87672765 1.91547894
H 18.13542858 2.09210143 2.05335015
H 1.88578499 6.27807226 1.81564245
H 2.08304409 5.62841499 2.15318664
H 6.27868232 5.96856746 1.99070469
H 5.62780493 5.93791978 1.97812439
H 9.88413029 5.79200060 1.94100671
H 9.96001512 6.11448665 2.02782237
H 13.66681148 6.08188696 2.22827113
H 14.11499209 5.82460028 1.74055795
H 17.58492530 5.91978178 2.07559846
H 18.13453643 5.98670547 1.89323062
20
Lattice="19.84414541 0 0 0 7.93765816 0 0 0 3.96882908" Properties=species:S:1:pos:R:3 energy=-0.0262484352 time_ps=0.012500 frame=10 pbc="T T T" comment="QML-FF atomic_amplitude checkpoint round_05; 10xH2; units=Angstrom"
H 1.92193541 1.75456827 1.97671242
H 2.04689367 2.21426081 1.99211666
H 6.38514022 1.84987403 1.84918767
H 5.52134703 2.11895505 2.11964141
H 10.04707065 1.94511228 2.08670073
H 9.79707475 2.02371680 1.88212835
H 14.19411225 2.03357963 2.05476905
H 13.58769132 1.93524945 1.91406004
H 17.65413580 1.79570934 1.80499201
H 18.06532594 2.17311974 2.16383707
H 1.90458662 6.18315070 1.94410685
H 2.06424246 5.72333655 2.02472223
H 6.22344698 5.78760601 2.13023784
H 5.68304026 6.11888123 1.83859124
H 10.00111586 5.68176042 1.74963711
H 9.84302954 6.22472682 2.21919197
H 13.67714143 6.27248582 1.81243416
H 14.10466214 5.63400143 2.15639493
H 17.63435394 5.91848634 2.16634323
H 18.08510779 5.98800090 1.80248585
20
Lattice="19.84414541 0 0 0 7.93765816 0 0 0 3.96882908" Properties=species:S:1:pos:R:3 energy=-0.0296185502 time_ps=0.013500 frame=11 pbc="T T T" comment="QML-FF atomic_amplitude checkpoint round_05; 10xH2; units=Angstrom"
H 1.91152536 1.57431424 2.08313219
H 2.05730372 2.39451485 1.88569689
H 6.14951623 1.97869488 1.79971094
H 5.75697101 1.99013420 2.16911814
H 10.19324859 1.91939845 2.12166917
H 9.65089682 2.04943063 1.84715991
H 14.15843822 2.01757822 2.16231451
H 13.62336535 1.95125086 1.80651458
H 17.86915726 1.84756276 1.72445861
H 17.85030447 2.12126632 2.24437047
H 1.99245268 6.12527858 1.99534449
H 1.97637640 5.78120866 1.97348459
H 6.06898163 5.72117693 2.18991310
H 5.83750562 6.18531032 1.77891598
H 9.97840753 5.74358449 1.77549009
H 9.86573788 6.16290275 2.19333899
H 13.76539024 6.11621834 1.67488501
H 14.01641333 5.79026891 2.29394407
H 17.75414949 5.93048287 2.20239612
H 17.96531225 5.97600437 1.76643297
20
Lattice="19.84414541 0 0 0 7.93765816 0 0 0 3.96882908" Properties=species:S:1:pos:R:3 energy=-0.0274136118 time_ps=0.015000 frame=12 pbc="T T T" comment="QML-FF atomic_amplitude checkpoint round_05; 10xH2; units=Angstrom"
H 1.98630937 1.83352760 2.18535392
H 1.98251971 2.13530148 1.78347516
H 5.72861025 2.14515216 1.59419162
H 6.17787700 1.82367692 2.37463747
H 10.22282095 1.93653701 2.08158888
H 9.62132446 2.03229207 1.88724020
H 13.90530081 1.95330927 2.26082482
H 13.87650277 2.01551981 1.70800426
H 18.09724382 1.98558921 1.72406054
H 17.62221792 1.98323987 2.24476854
H 2.08379786 6.31650672 2.03024401
H 1.88503122 5.58998053 1.93858507
H 5.86022646 5.67343319 2.15414391
H 6.04626079 6.23305405 1.81468517
H 9.84238477 5.77970965 1.87092436
H 10.00176064 6.12677760 2.09790472
H 14.06367332 5.72053938 1.71604467
H 13.71813026 6.18594786 2.25278441
H 17.88220199 6.02364950 2.23281484
H 17.83725975 5.88283775 1.73601424
20
Lattice="19.84414541 0 0 0 7.93765816 0 0 0 3.96882908" Properties=species:S:1:pos:R:3 energy=-0.0271353413 time_ps=0.016000 frame=13 pbc="T T T" comment="QML-FF atomic_amplitude checkpoint round_05; 10xH2; units=Angstrom"
H 2.00656360 2.03069941 2.28945513
H 1.96226548 1.93812967 1.67937395
H 5.60737152 2.13169283 1.61086238
H 6.29911572 1.83713625 2.35796670
H 10.17083539 2.02318501 2.03870319
H 9.67331002 1.94564407 1.93012589
H 13.79737973 1.90624348 2.31935442
H 13.98442385 2.06258560 1.64947466
H 18.14059748 2.04760165 1.88396495
H 17.57886425 1.92122743 2.08486414
H 2.04513748 6.21904843 1.99533116
H 1.92369160 5.68743881 1.97349792
H 5.74893785 5.66029913 1.98592268
H 6.15754939 6.24618811 1.98290640
H 9.75215958 5.67393296 1.90416640
H 10.09198583 6.23255429 2.06466268
H 14.13462231 5.68721544 1.87454900
H 13.64718126 6.21927180 2.09428008
H 18.02719830 6.09871738 2.25166641
H 17.69226343 5.80776986 1.71716267
20
Lattice="19.84414541 0 0 0 7.93765816 0 0 0 3.96882908" Properties=species:S:1:pos:R:3 energy=-0.0313560045 time_ps=0.017500 frame=14 pbc="T T T" comment="QML-FF atomic_amplitude checkpoint round_05; 10xH2; units=Angstrom"
H 2.00771187 2.21446499 2.31020762
H 1.96111721 1.75436409 1.65862147
H 5.62335660 1.95400596 1.94165078
H 6.28313065 2.01482312 2.02717830
H 10.19846468 2.12559112 1.97872199
H 9.64568073 1.84323796 1.99010709
H 13.76734238 1.92984701 2.21992750
H 14.01446119 2.03898207 1.74890158
H 18.10465131 2.09526296 2.20614954
H 17.61481043 1.87356613 1.76267955
H 2.04250994 6.16244157 1.93255953
H 1.92631914 5.74404567 2.03626955
H 5.80732610 5.81608286 1.71958350
H 6.09916115 6.09040439 2.24924558
H 9.76520810 5.74315181 2.04113991
H 10.07893731 6.16333543 1.92768917
H 14.03751559 5.81834364 2.24614099
H 13.74428798 6.08814361 1.72268809
H 18.09239667 6.11700075 2.02452357
H 17.62706507 5.78948649 1.94430552
20
Lattice="19.84414541 0 0 0 7.93765816 0 0 0 3.96882908" Properties=species:S:1:pos:R:3 energy=-0.0270233733 time_ps=0.018500 frame=15 pbc="T T T" comment="QML-FF atomic_amplitude checkpoint round_05; 10xH2; units=Angstrom"
H 1.94975398 2.13418694 2.05423471
H 2.01907511 1.83464214 1.91459438
H 5.77022582 1.74923713 2.14372027
H 6.13626143 2.21959195 1.82510881
H 10.19210920 2.15738139 2.00973507
H 9.65203621 1.81144769 1.95909401
H 13.74779143 1.91404487 2.20730977
H 14.03401215 2.05478421 1.76151932
H 17.99016202 2.14484563 2.35267097
H 17.72929972 1.82398345 1.61615811
H 2.11213231 6.29915569 1.88860379
H 1.85669677 5.60733156 2.08022530
H 6.02242730 5.96658533 1.63561339
H 5.88405994 5.93990192 2.33321569
H 9.76677786 5.74476612 2.22778987
H 10.07736755 6.16172113 1.74103921
H 13.91596001 5.94369475 2.41069242
H 13.86584356 5.96279249 1.55813666
H 18.09312165 6.11250154 1.84939845
H 17.62634009 5.79398571 2.11943063
20
Lattice="19.84414541 0 0 0 7.93765816 0 0 0 3.96882908" Properties=species:S:1:pos:R:3 energy=-0.0283504318 time_ps=0.020000 frame=16 pbc="T T T" comment="QML-FF atomic_amplitude checkpoint round_05; 10xH2; units=Angstrom"
H 1.73260708 2.14875712 1.69442667
H 2.23622200 1.82007196 2.27440241
H 6.04798624 1.65947258 2.26711474
H 5.85850100 2.30935650 1.70171434
H 10.15835762 2.07142027 2.13785333
H 9.68578779 1.89740881 1.83097575
H 13.80517918 1.78474414 2.24519669
H 13.97662439 2.18408495 1.72363239
H 17.76010968 2.06218158 2.13827122
H 17.95935206 1.90664751 1.83055787
H 2.04433828 6.16933465 1.86743489
H 1.92449081 5.73715259 2.10139419
H 6.14172667 6.06229946 1.74089106
H 5.76476058 5.84418778 2.22793802
H 9.91159004 5.88843246 2.31256051
H 9.93255537 6.01805479 1.65626857
H 13.68629257 6.17340490 2.13703961
H 14.09551100 5.73308235 1.83178947
H 18.03295022 6.07644801 1.74283506
H 17.68651152 5.83003923 2.22599402
20
Lattice="19.84414541 0 0 0 7.93765816 0 0 0 3.96882908" Properties=species:S:1:pos:R:3 energy=-0.0310906492 time_ps=0.021000 frame=17 pbc="T T T" comment="QML-FF atomic_amplitude checkpoint round_05; 10xH2; units=Angstrom"
H 1.82238484 2.08648422 1.65802697
H 2.14644424 1.88234486 2.31080211
H 6.15977075 1.88747740 2.09420777
H 5.74671650 2.08135168 1.87462131
H 10.14104538 2.08903917 2.24658192
H 9.70310003 1.87978991 1.72224716
H 13.92876291 1.77087628 2.18532669
H 13.85304066 2.19795280 1.78350240
H 17.62558297 2.13237554 2.07898578
H 18.09387876 1.83645354 1.88984330
H 1.89894143 6.00120354 1.78319536
H 2.06988765 5.90528371 2.18563372
H 6.11625238 6.11206304 1.98822348
H 5.79023487 5.79442421 1.98060560
H 9.98449165 5.97643966 2.21460969
H 9.85965376 5.93004758 1.75421939
H 13.75930405 6.23551322 1.83842501
H 14.02249952 5.67097403 2.13040407
H 17.92998484 5.99737277 1.75906531
H 17.78947689 5.90911447 2.20976377
20
Lattice="19.84414541 0 0 0 7.93765816 0 0 0 3.96882908" Properties=species:S:1:pos:R:3 energy=-0.0251806673 time_ps=0.022500 frame=18 pbc="T T T" comment="QML-FF atomic_amplitude checkpoint round_05; 10xH2; units=Angstrom"
H 2.26287061 1.87373367 1.81152375
H 1.70595847 2.09509541 2.15730534
H 6.31028058 2.10672488 1.74125940
H 5.59620666 1.86210421 2.22756968
H 9.84306780 2.04167985 2.28395546
H 10.00107761 1.92714923 1.68487362
H 14.15052274 1.82732654 1.96311414
H 13.63128083 2.14150254 2.00571494
H 17.53035621 2.21782637 2.07166460
H 18.18910553 1.75100271 1.89716448
H 1.71059772 5.79664719 1.66625654
H 2.25823136 6.10984006 2.30257254
H 6.08752446 6.18268812 2.26644814
H 5.81896278 5.72379913 1.70238095
H 10.10491239 6.14383212 2.22499223
H 9.73923302 5.76265513 1.74383685
H 14.04410641 6.00550540 1.65515691
H 13.73769716 5.90098185 2.31367217
H 17.82482868 5.88239733 1.71125432
H 17.89463305 6.02408991 2.25757476
20
Lattice="19.84414541 0 0 0 7.93765816 0 0 0 3.96882908" Properties=species:S:1:pos:R:3 energy=-0.0259877952 time_ps=0.023500 frame=19 pbc="T T T" comment="QML-FF atomic_amplitude checkpoint round_05; 10xH2; units=Angstrom"
H 2.47622468 1.80152217 1.89767380
H 1.49260440 2.16730691 2.07115528
H 6.15362550 2.08839538 1.71367826
H 5.75286175 1.88043370 2.25515082
H 9.63953663 1.98338005 2.23423215
H 10.20460878 1.98544903 1.73459693
H 14.16296952 1.87297987 1.81046381
H 13.61883406 2.09584921 2.15836527
H 17.70816137 2.13445183 2.05980949
H 18.01130037 1.83437725 1.90901959
H 1.78470900 5.76604172 1.88833188
H 2.18412008 6.14044552 2.08049721
H 5.99032041 6.07925319 2.27095015
H 5.91616684 5.82723406 1.69787894
H 10.07188634 6.15786300 2.20482836
H 9.77225907 5.74862425 1.76400072
H 14.15523290 5.75492342 1.76590560
H 13.62657067 6.15156383 2.20292348
H 17.73710464 5.78002130 1.70778432
H 17.98235709 6.12646595 2.26104476
20
Lattice="19.84414541 0 0 0 7.93765816 0 0 0 3.96882908" Properties=species:S:1:pos:R:3 energy=-0.0306547867 time_ps=0.025000 frame=20 pbc="T T T" comment="QML-FF atomic_amplitude checkpoint round_05; 10xH2; units=Angstrom"
H 2.29542328 1.95390907 2.15843326
H 1.67340580 2.01492001 1.81039582
H 5.78769067 1.99439723 1.76954569
H 6.11879657 1.97443186 2.19928339
H 9.63716254 1.84337022 2.01351305
H 10.20698287 2.12545887 1.95531603
H 14.03750937 1.93349287 1.79456555
H 13.74429420 2.03533621 2.17426353
H 17.65202663 2.17897137 2.02609826
H 18.06743511 1.78985771 1.94273082
H 2.05985925 5.72770917 2.31274461
H 1.90896983 6.17877807 1.65608447
H 5.86567846 5.90270678 2.25787085
H 6.04080878 6.00378046 1.71095823
H 9.91023965 6.03114956 2.21559500
H 9.93390576 5.87533769 1.75323408
H 13.95983107 5.62283679 2.16799963
H 13.82197250 6.28365046 1.80082946
H 17.66230622 5.82967745 1.86749521
H 18.05715552 6.07680980 2.10133387
20
Lattice="19.84414541 0 0 0 7.93765816 0 0 0 3.96882908" Properties=species:S:1:pos:R:3 energy=-0.0257265148 time_ps=0.026000 frame=21 pbc="T T T" comment="QML-FF atomic_amplitude checkpoint round_05; 10xH2; units=Angstrom"
H 1.99670049 2.16162749 2.21162850
H 1.97212859 1.80720160 1.75720058
H 5.63102014 1.93605596 1.78492555
H 6.27546710 2.03277312 2.18390353
H 9.78911308 1.75302329 1.88453281
H 10.05503232 2.21580579 2.08429627
H 13.94562225 1.98165803 1.75184701
H 13.83618132 1.98717105 2.21698208
H 17.52082655 2.20345334 2.02831339
H 18.19863518 1.76537574 1.94051569
H 2.20236324 5.74601536 2.43566170
H 1.76646584 6.16047189 1.53316738
H 5.89789202 5.79748445 2.24860920
H 6.00859522 6.10900280 1.72021988
H 9.77441948 5.94922047 2.30047738
H 10.06972593 5.95726678 1.66835170
H 13.64710762 5.77473435 2.19846386
H 14.13469595 6.13175289 1.77036522
H 17.64589550 5.80954109 1.97718483
H 18.07356624 6.09694616 1.99164425
20
Lattice="19.84414541 0 0 0 7.93765816 0 0 0 3.96882908" Properties=species:S:1:pos:R:3 energy=-0.0275504171 time_ps=0.027500 frame=22 pbc="T T T" comment="QML-FF atomic_amplitude checkpoint round_05; 10xH2; units=Angstrom"
H 1.72396251 2.19526241 2.19812090
H 2.24486657 1.77356667 1.77070818
H 5.66833121 1.91519413 1.93007737
H 6.23815603 2.05363495 2.03875171
H 9.93895997 1.78356399 1.74083581
H 9.90518544 2.18526510 2.22799327
H 13.84562494 2.02633464 1.56824658
H 13.93617863 1.94249444 2.40058250
H 17.62747359 2.03206474 2.04347346
H 18.09198815 1.93676434 1.92535562
H 2.17951274 5.98251732 2.19401703
H 1.78931634 5.92396992 1.77481206
H 5.94043242 5.61019104 2.15172353
H 5.96605483 6.29629621 1.81710555
H 9.70426798 5.80258305 2.18643622
H 10.13987743 6.10390419 1.78239286
H 13.48713261 6.08188720 1.93612094
H 14.29467097 5.82460005 2.03270814
H 17.63870956 5.72148058 2.13385514
H 18.08075217 6.18500666 1.83497394
20
Lattice="19.84414541 0 0 0 7.93765816 0 0 0 3.96882908" Properties=species:S:1:pos:R:3 energy=-0.0319263005 time_ps=0.028500 frame=23 pbc="T T T" comment="QML-FF atomic_amplitude checkpoint round_05; 10xH2; units=Angstrom"
H 1.75753274 2.05944515 2.07321530
H 2.21129634 1.90938393 1.89561378
H 5.75733284 1.98484434 2.02050944
H 6.14915441 1.98398474 1.94831964
H 9.99237756 1.88682290 1.67998733
H 9.85176785 2.08200618 2.28884175
H 13.76813578 1.95979273 1.76220286
H 14.01366779 2.00903635 2.20662622
H 17.57174693 1.91677356 2.05140997
H 18.14771481 2.05205553 1.91741911
H 2.15016854 6.11497121 1.95919574
H 1.81866054 5.79151604 2.00963335
H 5.97867976 5.67093605 2.00987717
H 5.92780749 6.23555119 1.95895192
H 9.65030638 5.78471673 2.06809472
H 10.19383903 6.12177051 1.90073436
H 13.80231577 6.21240476 1.79022204
H 13.97948780 5.69408248 2.17860704
H 17.79183965 5.76785821 2.12231517
H 17.92762208 6.13862904 1.84651391
20
Lattice="19.84414541 0 0 0 7.93765816 0 0 0 3.96882908" Properties=species:S:1:pos:R:3 energy=-0.0260793918 time_ps=0.030000 frame=24 pbc="T T T" comment="QML-FF atomic_amplitude checkpoint round_05; 10xH2; units=Angstrom"
H 1.76401451 1.92741095 1.87824811
H 2.20481457 2.04141813 2.09058097
H 5.65951683 2.15244643 2.21497691
H 6.24697042 1.81638265 1.75385217
H 10.02892271 2.12571713 1.71917430
H 9.81522270 1.84311195 2.24965478
H 13.60826180 1.72688579 2.00443258
H 14.17354177 2.24194329 1.96439651
H 17.60195754 1.86927652 2.06511733
H 18.11750419 2.09955256 1.90371175
H 2.24575508 6.23630238 1.80068819
H 1.72307400 5.67018486 2.16814089
H 6.14727485 5.77319164 1.68647336
H 5.75921240 6.13329560 2.28235572
H 9.68464929 5.90120658 1.93186323
H 10.15949612 6.00528067 2.03696585
H 14.23728241 6.14227364 1.80027366
H 13.54452116 5.76421361 2.16855542
H 17.98989389 5.73875063 2.17482528
H 17.72956785 6.16773662 1.79400380
20
Lattice="19.84414541 0 0 0 7.93765816 0 0 0 3.96882908" Properties=species:S:1:pos:R:3 energy=-0.0275742049 time_ps=0.031000 frame=25 pbc="T T T" comment="QML-FF atomic_amplitude checkpoint round_05; 10xH2; units=Angstrom"
H 1.65548427 1.89788585 1.72045022
H 2.31334481 2.07094323 2.24837887
H 5.77603622 2.16196294 2.26236525
H 6.13045103 1.80686614 1.70646383
H 10.02744217 2.23952216 1.78537710
H 9.81670324 1.72930692 2.18345198
H 13.63911391 1.73717103 2.06437918
H 14.14268967 2.23165805 1.90444990
H 17.63664256 1.86266719 2.01101243
H 18.08281918 2.10616190 1.95781665
H 2.08627374 6.06163265 1.92476711
H 1.88255534 5.84485460 2.04406197
H 6.14203877 5.87721685 1.67514411
H 5.76444848 6.02927039 2.29368497
H 9.66720001 5.99567641 1.85380119
H 10.17694540 5.91081084 2.11502789
H 14.24312866 5.98853387 2.03094444
H 13.53867491 5.91795337 1.93788464
H 18.03081087 5.72418846 2.18713268
H 17.68865087 6.18229878 1.78169640
20
Lattice="19.84414541 0 0 0 7.93765816 0 0 0 3.96882908" Properties=species:S:1:pos:R:3 energy=-0.0302704132 time_ps=0.032500 frame=26 pbc="T T T" comment="QML-FF atomic_amplitude checkpoint round_05; 10xH2; units=Angstrom"
H 1.86500917 2.05532175 1.76833101
H 2.10381991 1.91350733 2.20049808
H 6.09426963 2.07239786 2.15832800
H 5.81221761 1.89643122 1.81050108
H 9.91136835 2.26641936 1.91680769
H 9.93277706 1.70240973 2.05202140
H 13.79324467 1.91066395 2.10398874
H 13.98855890 2.05816513 1.86484034
H 17.53785550 1.97797378 1.90358141
H 18.18160624 1.99085530 2.06524767
H 2.30276684 5.97139449 2.02785513
H 1.66606224 5.93509276 1.94097395
H 5.96721322 6.11406090 1.80180681
H 5.93927403 5.79242634 2.16702227
H 9.74942238 6.13849592 1.70638774
H 10.09472303 5.76799133 2.26244135
H 14.08906862 5.87218784 2.30485133
H 13.69273496 6.03429940 1.66397775
H 17.97217165 5.82280953 2.20627639
H 17.74729009 6.08367772 1.76255270
20
Lattice="19.84414541 0 0 0 7.93765816 0 0 0 3.96882908" Properties=species:S:1:pos:R:3 energy=-0.0250800295 time_ps=0.034000 frame=27 pbc="T T T" comment="QML-FF atomic_amplitude checkpoint round_05; 10xH2; units=Angstrom"
H 2.10721581 2.25560188 1.79078734
H 1.86161327 1.71322720 2.17804174
H 6.35611994 2.11161251 2.09524218
H 5.55036730 1.85721658 1.87358691
H 9.85375763 2.19943373 2.03347467
H 9.99038778 1.76939535 1.93535441
H 13.81402054 1.83345751 2.24908914
H 13.96778303 2.13537157 1.71973994
H 17.52520968 2.11999646 1.89529372
H 18.19425206 1.84883262 2.07353537
H 2.44431590 5.96133097 1.98896229
H 1.52451318 5.94515628 1.97986679
H 5.84958331 6.35651913 1.87099310
H 6.05690393 5.54996812 2.09783598
H 10.06278402 6.00588651 1.78124003
H 9.78136138 5.90060074 2.18758906
H 13.87194258 5.91960868 2.23894438
H 13.90986100 5.98687857 1.72988470
H 17.99122785 5.86510314 2.29246163
H 17.72823389 6.04138411 1.67636745
20
Lattice="19.84414541 0 0 0 7.93765816 0 0 0 3.96882908" Properties=species:S:1:pos:R:3 energy=-0.0308095299 time_ps=0.035000 frame=28 pbc="T T T" comment="QML-FF atomic_amplitude checkpoint round_05; 10xH2; units=Angstrom"
H 2.22308177 2.22951477 1.88570102
H 1.74574731 1.73931431 2.08312806
H 6.26687071 2.06811766 1.93742819
H 5.63961654 1.90071142 2.03140089
H 9.80875500 2.27370345 2.11910976
H 10.03539041 1.69512563 1.84971932
H 13.87786890 1.83489450 2.23589410
H 13.90393467 2.13393458 1.73293499
H 17.63842768 2.19044150 1.94634481
H 18.08103405 1.77838759 2.02248428
H 2.17657601 5.95790910 2.01843671
H 1.79225307 5.94857814 1.95039237
H 5.91838092 6.15812460 1.99029822
H 5.98810633 5.74836265 1.97853086
H 10.25408907 5.92105573 1.80840757
H 9.59005634 5.98543152 2.16042151
H 13.72941987 5.92455801 2.26818551
H 14.05238370 5.98192924 1.70064357
H 17.96430792 5.87877405 2.21846736
H 17.75515381 6.02771320 1.75036172
20
Lattice="19.84414541 0 0 0 7.93765816 0 0 0 3.96882908" Properties=species:S:1:pos:R:3 energy=-0.0327842485 time_ps=0.036500 frame=29 pbc="T T T" comment="QML-FF atomic_amplitude checkpoint round_05; 10xH2; units=Angstrom"
H 2.19361753 2.01488308 2.15933672
H 1.77521155 1.95394600 1.80949236
H 6.07134588 1.90287693 1.68433132
H 5.83514137 2.06595216 2.28449776
H 9.75871303 2.21837518 2.14709946
H 10.08543238 1.75045390 1.82172962
H 14.07533495 1.87568841 2.17887719
H 13.70646862 2.09314068 1.78995189
H 17.77087445 2.27090445 2.00047242
H 17.94858729 1.69792463 1.96835666
H 2.02055926 6.26900682 2.12586418
H 1.94826983 5.63748043 1.84296490
H 6.08242018 6.04705121 2.29740790
H 5.82406707 5.85943604 1.67142118
H 10.20354349 5.89270367 2.00327868
H 9.64060191 6.01378357 1.96555041
H 13.69576398 5.90632908 2.17092222
H 14.08603959 6.00015817 1.79790686
H 17.93759658 5.81852800 2.21473852
H 17.78186516 6.08795924 1.75409057
20
Lattice="19.84414541 0 0 0 7.93765816 0 0 0 3.96882908" Properties=species:S:1:pos:R:3 energy=-0.0220530947 time_ps=0.037500 frame=30 pbc="T T T" comment="QML-FF atomic_amplitude checkpoint round_05; 10xH2; units=Angstrom"
H 2.15802372 1.90177288 2.34268702
H 1.81080536 2.06705620 1.62614206
H 5.95820783 1.77967690 1.59418148
H 5.94827941 2.18915218 2.37464761
H 9.77961926 2.10017894 2.14557271
H 10.06452615 1.86865015 1.82325638
H 14.15525583 1.86315389 2.21425084
H 13.62654774 2.10567519 1.75457824
H 17.83443467 2.22352551 2.10149163
H 17.88502706 1.74530358 1.86733745
H 1.89228286 6.36488130 2.19124680
H 2.07654622 5.54160594 1.77758228
H 6.17163972 6.04829978 2.41563902
H 5.73484753 5.85818747 1.55319006
H 10.05297790 5.90441711 2.19917134
H 9.79116751 6.00207014 1.76965774
H 13.63757587 5.90275120 1.99212013
H 14.14422770 6.00373605 1.97670895
H 17.94043578 5.75382688 2.27645154
H 17.77902596 6.15266036 1.69237754
20
Lattice="19.84414541 0 0 0 7.93765816 0 0 0 3.96882908" Properties=species:S:1:pos:R:3 energy=-0.0281124171 time_ps=0.039000 frame=31 pbc="T T T" comment="QML-FF atomic_amplitude checkpoint round_05; 10xH2; units=Angstrom"
H 1.99020751 1.89182750 2.22799455
H 1.97862157 2.07700158 1.74083453
H 5.87568759 1.79094656 1.82056919
H 6.03079965 2.17788253 2.14825989
H 9.65582487 2.01073466 2.19400211
H 10.18832054 1.95809442 1.77482697
H 14.00125697 1.95251678 2.07716854
H 13.78054660 2.01631230 1.89166054
H 17.88943403 2.17857154 2.30338195
H 17.83002770 1.79025754 1.66544713
H 1.72359586 6.00897322 2.03938877
H 2.24523322 5.89751403 1.92944031
H 6.06951040 5.91934635 2.17996219
H 5.83697684 5.98714089 1.78886689
H 9.89706541 5.87921330 2.36487853
H 9.94708000 6.02727395 1.60395055
H 13.49467190 5.87047392 1.89087057
H 14.28713167 6.03601333 2.07795851
H 17.87651555 5.66380744 2.13212826
H 17.84294619 6.24267980 1.83670082
20
Lattice="19.84414541 0 0 0 7.93765816 0 0 0 3.96882908" Properties=species:S:1:pos:R:3 energy=-0.0308255586 time_ps=0.040000 frame=32 pbc="T T T" comment="QML-FF atomic_amplitude checkpoint round_05; 10xH2; units=Angstrom"
H 1.91578680 1.94646523 2.16915100
H 2.05304228 2.02236386 1.79967808
H 5.86450023 1.75014485 1.92608570
H 6.04198702 2.21868423 2.04274338
H 9.70671589 1.89665314 2.13118256
H 10.13742952 2.07217594 1.83764653
H 14.04399524 1.93960033 2.14276311
H 13.73780833 2.02922875 1.82606597
H 17.94257012 2.03932425 2.20325101
H 17.77689162 1.92950483 1.76557807
H 1.66086400 5.77099584 1.96064309
H 2.30796508 6.13549140 2.00818599
H 6.01705896 5.78760134 2.13770661
H 5.88942829 6.11888590 1.83112247
H 9.82837816 5.92941583 2.20543832
H 10.01576725 5.97707142 1.76339076
H 13.68386386 5.94041441 1.92675515
H 14.09793971 5.96607283 2.04207393
H 17.87655836 5.65228031 1.95097495
H 17.84290338 6.25420693 2.01785413
20
Lattice="19.84414541 0 0 0 7.93765816 0 0 0 3.96882908" Properties=species:S:1:pos:R:3 energy=-0.0271855867 time_ps=0.041500 frame=33 pbc="T T T" comment="QML-FF atomic_amplitude checkpoint round_05; 10xH2; units=Angstrom"
H 1.71918587 2.00981192 2.25575457
H 2.24964322 1.95901716 1.71307451
H 5.90654885 1.66239859 2.01537247
H 5.99993840 2.30643049 1.95345661
H 9.77738673 1.63227514 1.99660946
H 10.06675867 2.33655394 1.97221962
H 14.11136287 1.91549278 2.29387845
H 13.67044071 2.05333630 1.67495063
H 18.05127247 1.84300740 2.22149365
H 17.66818927 2.12582168 1.74733543
H 1.86692139 5.69234506 1.84352441
H 2.10190769 6.21414218 2.12530467
H 6.07519139 5.62097218 2.21447011
H 5.83129585 6.28551507 1.75435897
H 9.59320165 6.00493868 2.10399518
H 10.25094376 5.90154857 1.86483391
H 13.61520315 5.95362401 2.00491874
H 14.16660042 5.95286323 1.96391034
H 17.93793799 5.71478964 1.64912783
H 17.78152374 6.19169760 2.31970125
20
Lattice="19.84414541 0 0 0 7.93765816 0 0 0 3.96882908" Properties=species:S:1:pos:R:3 energy=-0.0310142445 time_ps=0.042500 frame=34 pbc="T T T" comment="QML-FF atomic_amplitude checkpoint round_05; 10xH2; units=Angstrom"
H 1.72299112 2.04913215 2.16284098
H 2.24583796 1.91969693 1.80598811
H 5.93365633 1.72452288 2.07982287
H 5.97283092 2.24430620 1.88900621
H 9.83862732 1.68228425 1.96179231
H 10.00551809 2.28654483 2.00703678
H 13.98553888 2.04770642 2.18436282
H 13.79626469 1.92112267 1.78446626
H 18.08563089 1.76900327 2.18922915
H 17.63383084 2.19982581 1.77959993
H 2.09870427 5.70271536 1.78613769
H 1.87012481 6.20377189 2.18269139
H 6.04193220 5.71171192 2.10437655
H 5.86455505 6.19477533 1.86445253
H 9.59991922 6.04508874 2.04891563
H 10.24422619 5.86139851 1.91991345
H 13.50029240 5.93375388 2.00430234
H 14.28151117 5.97273337 1.96452674
H 17.93321883 5.95919068 1.65685101
H 17.78624290 5.94729657 2.31197807
20
Lattice="19.84414541 0 0 0 7.93765816 0 0 0 3.96882908" Properties=species:S:1:pos:R:3 energy=-0.0290065977 time_ps=0.044000 frame=35 pbc="T T T" comment="QML-FF atomic_amplitude checkpoint round_05; 10xH2; units=Angstrom"
H 1.69266481 2.13049142 1.90416984
H 2.27616427 1.83833766 2.06465925
H 5.94320631 1.80797024 2.30789528
H 5.96328094 2.16085884 1.66093380
H 9.94195793 1.83628873 1.79377444
H 9.90218748 2.13254035 2.17505464
H 13.87603614 2.40627653 2.07939618
H 13.90576743 1.56255255 1.88943290
H 18.04821774 1.82578771 2.04227411
H 17.67124400 2.14304138 1.92655497
H 2.21950712 5.80246194 1.81744873
H 1.74932196 6.10402530 2.15138035
H 5.99127472 5.66917019 1.87537708
H 5.91521252 6.23731706 2.09345200
H 9.74365573 5.96668901 1.93102728
H 10.10048968 5.93979824 2.03780181
H 13.65300793 5.97333527 2.06378691
H 14.12879564 5.93315197 1.90504217
H 17.86945413 6.25984838 1.78544677
H 17.85000761 5.64663887 2.18338231
20
Lattice="19.84414541 0 0 0 7.93765816 0 0 0 3.96882908" Properties=species:S:1:pos:R:3 energy=-0.0288343196 time_ps=0.045000 frame=36 pbc="T T T" comment="QML-FF atomic_amplitude checkpoint round_05; 10xH2; units=Angstrom"
H 1.74568621 2.13975327 1.76810282
H 2.22314287 1.82907581 2.20072626
H 5.94180776 1.95118301 2.25999234
H 5.96467948 2.01764608 1.70883674
H 10.04334662 1.89393256 1.63953218
H 9.80079879 2.07489652 2.32929690
H 13.79659678 2.42755313 2.00902045
H 13.98520679 1.54127595 1.95980863
H 18.06966518 1.79752346 1.96668241
H 17.64979655 2.17130562 2.00214667
H 2.26792289 5.93772920 1.96009184
H 1.70090619 5.96875804 2.00873724
H 5.99505411 5.67475270 1.75951225
H 5.91143313 6.23173454 2.20931683
H 9.66179826 5.84910225 1.83194794
H 10.18234715 6.05738499 2.13688114
H 13.67187593 5.99941236 2.22698017
H 14.10992764 5.90707489 1.74184891
H 17.82036009 6.31120623 1.92313204
H 17.89910164 5.59528101 2.04569704
20
Lattice="19.84414541 0 0 0 7.93765816 0 0 0 3.96882908" Properties=species:S:1:pos:R:3 energy=-0.0306001187 time_ps=0.046500 frame=37 pbc="T T T" comment="QML-FF atomic_amplitude checkpoint round_05; 10xH2; units=Angstrom"
H 1.98872945 2.02526793 1.70333328
H 1.98009963 1.94356116 2.26549581
H 5.97246047 2.10130493 2.28020084
H 5.93402677 1.86752415 1.68862824
H 10.12101028 2.11915879 1.77928153
H 9.72313513 1.84967029 2.18954755
H 13.75249132 2.02366863 1.88180237
H 14.02931225 1.94516046 2.08702671
H 18.09965542 1.83472279 1.78006170
H 17.61980632 2.13410629 2.18876739
H 2.29092703 6.05845659 2.14478915
H 1.67790205 5.84803066 1.82403993
H 5.87746771 6.00643369 1.64064379
H 6.02901954 5.90005355 2.32818529
H 9.80933909 5.66520715 1.86208297
H 10.03480632 6.24128010 2.10674612
H 13.74601086 6.02973686 2.30390630
H 14.03579271 5.87675038 1.66492278
H 17.93301497 6.15838442 2.09560336
H 17.78644676 5.74810282 1.87322572
20
Lattice="19.84414541 0 0 0 7.93765816 0 0 0 3.96882908" Properties=species:S:1:pos:R:3 energy=-0.0306097580 time_ps=0.047500 frame=38 pbc="T T T" comment="QML-FF atomic_amplitude checkpoint round_05; 10xH2; units=Angstrom"
H 1.99485975 1.93284613 1.68633555
H 1.97396933 2.03598295 2.28249354
H 5.94518859 2.15150970 2.21634181
H 5.96129866 1.81731938 1.75248727
H 10.08494542 2.30082035 2.01280826
H 9.75919999 1.66800873 1.95602082
H 13.62639260 1.78952536 1.74752408
H 14.15541098 2.17930372 2.22130500
H 17.99974731 1.93452289 1.67256734
H 17.71971443 2.03430619 2.29626174
H 2.19135959 6.05234891 2.17760627
H 1.77746949 5.85413833 1.79122281
H 5.85515976 6.20978559 1.70168367
H 6.05132749 5.69670165 2.26714541
H 9.95489408 5.68616012 2.00670143
H 9.88925133 6.22032712 1.96212766
H 13.83340070 6.06927325 2.21622102
H 13.94840287 5.83721399 1.75260806
H 18.03563940 6.11022797 2.17468540
H 17.68382234 5.79625928 1.79414369
20
Lattice="19.84414541 0 0 0 7.93765816 0 0 0 3.96882908" Properties=species:S:1:pos:R:3 energy=-0.0283096373 time_ps=0.049000 frame=39 pbc="T T T" comment="QML-FF atomic_amplitude checkpoint round_05; 10xH2; units=Angstrom"
H 1.95913519 1.77418377 1.74135762
H 2.00969389 2.19464532 2.22747146
H 5.92835509 2.20875142 2.15261875
H 5.97813216 1.76007766 1.81621033
H 9.83469729 2.30384598 2.14308001
H 10.00944812 1.66498310 1.82574907
H 13.63012562 1.66473706 1.75563231
H 14.15167795 2.30409202 2.21319677
H 17.84813254 2.08862581 1.69233108
H 17.87132919 1.88020327 2.27649801
H 1.98274523 6.07857650 2.30892042
H 1.98608385 5.82791075 1.65990867
H 5.97884377 6.28034505 2.08196154
H 5.92764347 5.62614219 1.88686754
H 9.99871331 5.63446100 2.18420537
H 9.84543210 6.27202624 1.78462371
H 13.93535834 6.20401813 2.16896362
H 13.84644523 5.70246911 1.79986546
H 17.99985928 6.15926537 2.22069270
H 17.71960246 5.74722188 1.74813639
20
Lattice="19.84414541 0 0 0 7.93765816 0 0 0 3.96882908" Properties=species:S:1:pos:R:3 energy=-0.0305784102 time_ps=0.050000 frame=40 pbc="T T T" comment="QML-FF atomic_amplitude checkpoint round_05; 10xH2; units=Angstrom"
H 1.91631512 1.70871271 1.87150668
H 2.05251396 2.26011637 2.09732240
H 5.91182409 2.29032514 2.18694794
H 5.99466316 1.67850394 1.78188114
H 9.67492560 2.05732124 2.04478201
H 10.16921981 1.91150784 1.92404707
H 13.85576747 1.83211861 1.93860058
H 13.92603610 2.13671047 2.03022850
H 17.75914149 2.12874394 1.71799641
H 17.96032025 1.84008515 2.25083267
H 1.87846165 6.09538600 2.28215793
H 2.09036743 5.81110124 1.68667115
H 6.05081759 6.20581868 2.23822146
H 5.85566966 5.70066857 1.73060762
H 9.94424387 5.74925587 2.20761672
H 9.89990154 6.15723138 1.76121236
H 13.91582809 6.24809692 2.09776850
H 13.86597548 5.65839033 1.87106059
H 17.86043300 6.15986863 2.12913189
H 17.85902874 5.74661862 1.83969720
20
Lattice="19.84414541 0 0 0 7.93765816 0 0 0 3.96882908" Properties=species:S:1:pos:R:3 energy=-0.0262384754 time_ps=0.051500 frame=41 pbc="T T T" comment="QML-FF atomic_amplitude checkpoint round_05; 10xH2; units=Angstrom"
H 1.94088186 1.69320214 2.04765684
H 2.02794722 2.27562694 1.92117224
H 5.87812118 2.16989891 2.12190176
H 6.02836607 1.79893017 1.84692732
H 9.50750315 1.80722052 1.86400393
H 10.33664226 2.16160856 2.10482516
H 14.34493272 1.87558497 2.06394839
H 13.43687085 2.09324411 1.90488069
H 17.59141030 2.13567998 1.78087328
H 18.12805144 1.83314910 2.18795580
H 1.70664379 5.97937319 2.03644764
H 2.26218529 5.92711406 1.93238144
H 5.99198819 5.86570912 2.25476996
H 5.91449906 6.04077813 1.71405912
H 9.90347540 5.88039243 2.20470435
H 9.94067001 6.02609481 1.76412473
H 13.80938642 6.29757038 1.97699086
H 13.97241715 5.60891687 1.99183822
H 17.74183378 6.19690733 2.00936939
H 17.97762796 5.70957991 1.95945969
20
Lattice="19.84414541 0 0 0 7.93765816 0 0 0 3.96882908" Properties=species:S:1:pos:R:3 energy=-0.0262819003 time_ps=0.052500 frame=42 pbc="T T T" comment="QML-FF atomic_amplitude checkpoint round_05; 10xH2; units=Angstrom"
H 2.03182691 1.70232028 2.03916380
H 1.93700217 2.26650880 1.92966528
H 5.76621083 2.11227381 2.10960955
H 6.14027642 1.85655527 1.85921954
H 9.66111940 1.75869459 1.83201350
H 10.18302601 2.21013449 2.13681559
H 14.43434729 1.88897381 2.02807310
H 13.34745628 2.07985527 1.94075598
H 17.62784905 2.06420798 1.89760155
H 18.09161269 1.90462110 2.07122753
H 1.63303746 5.91519302 1.85470217
H 2.33579162 5.99129422 2.11412691
H 5.92824456 5.66845177 2.20220637
H 5.97824269 6.23803547 1.76662271
H 9.83535989 5.85520631 2.24594184
H 10.00878552 6.05128093 1.72288724
H 13.71020613 6.25599402 1.92613203
H 14.07159745 5.65049323 2.04269705
H 17.73561306 6.26622583 2.04121898
H 17.98384867 5.64026142 1.92761010
20
Lattice="19.84414541 0 0 0 7.93765816 0 0 0 3.96882908" Properties=species:S:1:pos:R:3 energy=-0.0301110701 time_ps=0.054000 frame=43 pbc="T T T" comment="QML-FF atomic_amplitude checkpoint round_05; 10xH2; units=Angstrom"
H 2.20058728 1.74541764 1.99284294
H 1.76824180 2.22341144 1.97598614
H 5.59015789 2.10961246 2.17501544
H 6.31632935 1.85921663 1.79381365
H 9.97773318 1.88329268 1.82692272
H 9.86641223 2.08553640 2.14190636
H 14.18419551 1.96586554 1.89536816
H 13.59760807 2.00296355 2.07346092
H 17.60496714 2.04889090 2.16054399
H 18.11449460 1.91993819 1.80828509
H 1.83392106 5.91953814 1.74013853
H 2.13490802 5.98694911 2.22869055
H 5.94457205 5.72912478 2.02762288
H 5.96191520 6.17736247 1.94120620
H 9.78617856 5.77808608 2.24729748
H 10.05796685 6.12840117 1.72153161
H 13.62212803 5.91721916 1.77149784
H 14.15967554 5.98926809 2.19733124
H 17.87511646 6.19492165 2.12651935
H 17.84434528 5.71156559 1.84230973
20
Lattice="19.84414541 0 0 0 7.93765816 0 0 0 3.96882908" Properties=species:S:1:pos:R:3 energy=-0.0299382328 time_ps=0.055000 frame=44 pbc="T T T" comment="QML-FF atomic_amplitude checkpoint round_05; 10xH2; units=Angstrom"
H 2.27452467 1.82604908 1.91598144
H 1.69430442 2.14278000 2.05284764
H 5.73169288 1.95338144 2.10819054
H 6.17479437 2.01544764 1.86063854
H 10.16845286 1.95857140 1.71635650
H 9.67569255 2.01025768 2.25247258
H 13.88178198 2.02468891 1.75224863
H 13.90002159 1.94414017 2.21658045
H 17.61845583 2.02447949 2.28673296
H 18.10100591 1.94434959 1.68209613
H 2.06048742 5.97579108 1.72542677
H 1.90834166 5.93069617 2.24340231
H 5.98683192 5.70683227 1.98391303
H 5.91965532 6.19965498 1.98491605
H 9.83330007 5.77934985 2.13059312
H 10.01084534 6.12713740 1.83823596
H 13.62758454 5.75084861 1.74272000
H 14.15421903 6.15563863 2.22610908
H 17.97745923 6.12657743 2.19687316
H 17.74200251 5.77990981 1.77195592
20
Lattice="19.84414541 0 0 0 7.93765816 0 0 0 3.96882908" Properties=species:S:1:pos:R:3 energy=-0.0274242837 time_ps=0.056500 frame=45 pbc="T T T" comment="QML-FF atomic_amplitude checkpoint round_05; 10xH2; units=Angstrom"
H 2.24123082 1.94877772 1.79052517
H 1.72759826 2.02005136 2.17830391
H 5.88115082 1.63470909 2.00165529
H 6.02533643 2.33411999 1.96717379
H 10.17110090 2.08517115 1.72772805
H 9.67304451 1.88365793 2.24110104
H 13.69823111 2.01143882 1.60757060
H 14.08357246 1.95739026 2.36125848
H 17.83107186 1.93800400 2.21427722
H 17.88838988 2.03082508 1.75455186
H 2.26932796 5.97795634 1.71852451
H 1.69950112 5.92853090 2.25030457
H 5.98279554 5.56594142 1.85429588
H 5.92369171 6.34054582 2.11453321
H 9.77605920 5.68809994 2.13864576
H 10.06808621 6.21838731 1.83018332
H 13.91216186 5.75584216 1.91396120
H 13.86964171 6.15064509 2.05486789
H 18.04289991 6.07457265 2.20750085
H 17.67656182 5.83191459 1.76132824
20
Lattice="19.84414541 0 0 0 7.93765816 0 0 0 3.96882908" Properties=species:S:1:pos:R:3 energy=-0.0306812043 time_ps=0.057500 frame=46 pbc="T T T" comment="QML-FF atomic_amplitude checkpoint round_05; 10xH2; units=Angstrom"
H 2.18220008 1.95905010 1.79633195
H 1.78662900 2.00977898 2.17249713
H 6.01150480 1.63308715 1.89730478
H 5.89498244 2.33574193 2.07152430
H 10.06234632 2.15597729 1.88825048
H 9.78179909 1.81285179 2.08057860
H 13.72573922 2.01813461 1.83672042
H 14.05606436 1.95069447 2.13210866
H 17.89833992 1.85867726 2.25065711
H 17.82112182 2.11015182 1.71817198
H 2.24281652 5.91523916 1.87924079
H 1.72601256 5.99124809 2.08958829
H 5.94015491 5.83946352 1.83350095
H 5.96633233 6.06702373 2.13532813
H 9.75624782 5.67977175 2.09007895
H 10.08789759 6.22671549 1.87875013
H 14.12931797 5.65308324 1.96498610
H 13.65248560 6.25340401 2.00384298
H 18.02866630 6.01035874 2.18202003
H 17.69079544 5.89612851 1.78680905
20
Lattice="19.84414541 0 0 0 7.93765816 0 0 0 3.96882908" Properties=species:S:1:pos:R:3 energy=-0.0276092273 time_ps=0.059000 frame=47 pbc="T T T" comment="QML-FF atomic_amplitude checkpoint round_05; 10xH2; units=Angstrom"
H 2.09816165 1.89559184 1.71580475
H 1.87066744 2.07323724 2.25302433
H 6.13795525 1.93115371 1.68459131
H 5.76853199 2.03767537 2.28423777
H 9.96499998 2.40720585 1.96827586
H 9.87914543 1.56162323 2.00055322
H 13.69024812 2.17450750 2.19937799
H 14.09155545 1.79432158 1.76945109
H 17.94809053 1.80721343 2.23467070
H 17.77137121 2.16161565 1.73415838
H 2.26930186 5.89871199 2.19647448
H 1.69952722 6.00777525 1.77235460
H 5.75972538 6.20799116 1.67046015
H 6.14676186 5.69849608 2.29836893
H 9.77885245 5.74989843 1.93497353
H 10.06529296 6.15658882 2.03385555
H 14.20162097 5.87888528 2.03678869
H 13.58018260 6.02760196 1.93204039
H 18.17301369 5.96794566 2.16250197
H 17.54644805 5.93854159 1.80632711
20
Lattice="19.84414541 0 0 0 7.93765816 0 0 0 3.96882908" Properties=species:S:1:pos:R:3 energy=-0.0254418874 time_ps=0.060000 frame=48 pbc="T T T" comment="QML-FF atomic_amplitude checkpoint round_05; 10xH2; units=Angstrom"
H 2.07819951 1.88529082 1.68489405
H 1.89062957 2.08353826 2.28393503
H 6.11254196 2.09930030 1.69845978
H 5.79394528 1.86952878 2.27036931
H 9.87898841 2.28463283 2.01096510
H 9.96515700 1.68419625 1.95786398
H 13.71296447 2.23206508 2.31771081
H 14.06883910 1.73676400 1.65111827
H 17.92079972 1.75146110 2.13618900
H 17.79866202 2.21736798 1.83264008
H 2.16135214 5.90613110 2.37515940
H 1.80747694 6.00035615 1.59366968
H 5.76259170 6.24208075 1.68690522
H 6.14389554 5.66440649 2.28192386
H 9.74212332 5.69821045 1.88347344
H 10.10202209 6.20827680 2.08535564
H 14.08350346 6.14624210 2.11735467
H 13.69830011 5.76024515 1.85147442
H 18.20976378 6.00527147 2.09708311
H 17.50969796 5.90121578 1.87174597
20
Lattice="19.84414541 0 0 0 7.93765816 0 0 0 3.96882908" Properties=species:S:1:pos:R:3 energy=-0.0285829742 time_ps=0.061500 frame=49 pbc="T T T" comment="QML-FF atomic_amplitude checkpoint round_05; 10xH2; units=Angstrom"
H 2.03515583 1.83781010 1.72119867
H 1.93367325 2.13101898 2.24763041
H 5.96562248 2.19863940 1.85250692
H 5.94086476 1.77018968 2.11632216
H 9.68973094 1.99073634 2.19011247
H 10.15441447 1.97809274 1.77871661
H 13.93278785 2.12481412 2.09797762
H 13.84901572 1.84401496 1.87085147
H 18.01301893 1.64965785 1.98542536
H 17.70644281 2.31917124 1.98340372
H 1.79216029 5.90970217 2.17662895
H 2.17666879 5.99678507 1.79220014
H 5.92191017 6.08601247 1.98061251
H 5.98457708 5.82047478 1.98821658
H 9.73575797 5.72581301 1.88494798
H 10.10838744 6.18067424 2.08388110
H 13.88594551 6.31847619 2.14097478
H 13.89585806 5.58801106 1.82785430
H 18.08012991 5.98673074 2.00080226
H 17.63933183 5.91975651 1.96802682
20
Lattice="19.84414541 0 0 0 7.93765816 0 0 0 3.96882908" Properties=species:S:1:pos:R:3 energy=-0.0289953200 time_ps=0.062500 frame=50 pbc="T T T" comment="QML-FF atomic_amplitude checkpoint round_05; 10xH2; units=Angstrom"
H 2.01006678 1.80679629 1.74613566
H 1.95876231 2.16203279 2.22269342
H 5.88292925 2.29439964 1.89018809
H 6.02355799 1.67442944 2.07864099
H 9.62665271 1.81440742 2.25962460
H 10.21749269 2.15442166 1.70920448
H 14.05347535 2.14626680 2.07315198
H 13.72832822 1.82256228 1.89567710
H 18.10853067 1.79027741 1.87193344
H 17.61093106 2.17855167 2.09689564
H 1.60492053 5.92399359 1.98988029
H 2.36390856 5.98249366 1.97894880
H 6.00477186 6.23981198 2.11870499
H 5.90171539 5.66667526 1.85012409
H 9.76898171 5.84015035 1.98343247
H 10.07516370 6.06633689 1.98539661
H 13.81199064 6.14418142 2.05315487
H 13.96981293 5.76230582 1.91567421
H 18.15324844 5.98089577 1.94938468
H 17.56621329 5.92559148 2.01944440
20
Lattice="19.84414541 0 0 0 7.93765816 0 0 0 3.96882908" Properties=species:S:1:pos:R:3 energy=-0.0273031417 time_ps=0.064000 frame=51 pbc="T T T" comment="QML-FF atomic_amplitude checkpoint round_05; 10xH2; units=Angstrom"
H 2.06211254 1.64499634 1.91756692
H 1.90671654 2.32383274 2.05126216
H 5.83395184 2.21541114 1.96982392
H 6.07253540 1.75341794 1.99900516
H 9.80349066 1.72420658 2.06734652
H 10.04065475 2.24462250 1.90148256
H 14.21503637 2.13667576 2.09931956
H 13.56676720 1.83215332 1.86950952
H 18.08442740 2.07279723 1.74592858
H 17.63503434 1.89603186 2.22290050
H 1.69731202 5.94239904 1.75787292
H 2.27151706 5.96408821 2.21095616
H 6.16735591 6.30381639 2.20833113
H 5.73913134 5.60267086 1.76049795
H 9.58027386 5.94410006 2.10215750
H 10.26387155 5.96238718 1.86667159
H 13.52127748 5.94769738 2.06247116
H 14.26052609 5.95878986 1.90635793
H 18.19385955 6.05015521 1.93184752
H 17.52560219 5.85633203 2.03698156
20
Lattice="19.84414541 0 0 0 7.93765816 0 0 0 3.96882908" Properties=species:S:1:pos:R:3 energy=-0.0291410219 time_ps=0.065000 frame=52 pbc="T T T" comment="QML-FF atomic_amplitude checkpoint round_05; 10xH2; units=Angstrom"
H 2.13158132 1.66124695 2.07466168
H 1.83724776 2.30758213 1.89416741
H 5.74393772 2.16928169 1.99341105
H 6.16254953 1.79954739 1.97541803
H 9.92612289 1.71065239 1.93917200
H 9.91802252 2.25817669 2.02965708
H 14.22100567 2.02199693 2.05254638
H 13.56079790 1.94683215 1.91628270
H 18.03995958 2.23100105 1.72044623
H 17.67950216 1.73782804 2.24838285
H 2.00683742 5.92631573 1.64670277
H 1.96199166 5.98017151 2.32212631
H 6.09311204 6.07719497 2.05727772
H 5.81337520 5.82929227 1.91155136
H 9.59598305 5.99646780 2.05615183
H 10.24816236 5.91001945 1.91267725
H 13.51547020 5.85826104 2.04052576
H 14.26633337 6.04822621 1.92830332
H 18.03289910 6.05935064 2.04959068
H 17.68656264 5.84713660 1.91923840
20
Lattice="19.84414541 0 0 0 7.93765816 0 0 0 3.96882908" Properties=species:S:1:pos:R:3 energy=-0.0310305180 time_ps=0.066500 frame=53 pbc="T T T" comment="QML-FF atomic_amplitude checkpoint round_05; 10xH2; units=Angstrom"
H 2.10704608 1.88500280 2.18045013
H 1.86178300 2.08382628 1.78837895
H 5.63405130 2.02636073 1.99598770
H 6.27243595 1.94246835 1.97284138
H 10.02852598 1.73847830 1.77282950
H 9.81561943 2.23035078 2.19599958
H 14.15241839 1.80074281 1.98292585
H 13.62938519 2.16808627 1.98590323
H 17.81863453 2.22719083 1.97834114
H 17.90082720 1.74163825 1.99048794
H 2.32807805 5.93135858 1.76515198
H 1.64075103 5.97512867 2.20367710
H 6.19371917 5.86849471 1.77508570
H 5.71276808 6.03799253 2.19374338
H 9.77879439 6.16621458 2.05813211
H 10.06535102 5.74027266 1.91069697
H 13.78888699 5.71990479 1.90873718
H 13.99291658 6.18658246 2.06009191
H 18.08917974 6.16764777 2.15867622
H 17.63028199 5.73883947 1.81015286
20
Lattice="19.84414541 0 0 0 7.93765816 0 0 0 3.96882908" Properties=species:S:1:pos:R:3 energy=-0.0213463415 time_ps=0.068000 frame=54 pbc="T T T" comment="QML-FF atomic_amplitude checkpoint round_05; 10xH2; units=Angstrom"
H 1.90724839 1.99109642 2.36034105
H 2.06158069 1.97773266 1.60848803
H 5.65541258 2.03333306 1.89221822
H 6.25107467 1.93549602 2.07661086
H 10.11317357 1.96407949 1.70409227
H 9.73097184 2.00474960 2.26473682
H 13.95898977 1.64428539 1.92752266
H 13.82281380 2.32454369 2.04130642
H 17.59128862 2.21369987 2.24775503
H 18.12817312 1.75512922 1.72107405
H 2.26345099 5.91984161 2.18845367
H 1.70537810 5.98664563 1.78037542
H 6.28705109 5.73401489 1.53197920
H 5.61943616 6.17247235 2.43684988
H 10.02395695 6.26339723 2.10506209
H 9.82018846 5.64309002 1.86376699
H 13.94213334 5.55104560 1.74549582
H 13.83967023 6.35544164 2.22333326
H 18.08565882 6.13882569 2.09327588
H 17.63380291 5.76766156 1.87555320
20
Lattice="19.84414541 0 0 0 7.93765816 0 0 0 3.96882908" Properties=species:S:1:pos:R:3 energy=-0.0268434869 time_ps=0.069000 frame=55 pbc="T T T" comment="QML-FF atomic_amplitude checkpoint round_05; 10xH2; units=Angstrom"
H 1.82220312 2.03949096 2.34334854
H 2.14662596 1.92933812 1.62548054
H 5.71962977 2.06366367 1.79357331
H 6.18685748 1.90516541 2.17525577
H 10.06125756 2.15519287 1.77393257
H 9.78288785 1.81363622 2.19489651
H 13.82500208 1.75052635 1.84681766
H 13.95680149 2.21830274 2.12201143
H 17.64950218 2.09282064 2.23121332
H 18.06995956 1.87600844 1.73761576
H 2.03181536 5.92092837 2.35101268
H 1.93701372 5.98555888 1.61781641
H 6.31188644 5.66285816 1.38477205
H 5.59460080 6.24362909 2.58405703
H 10.17267489 6.10033765 2.09707907
H 9.67147052 5.80614959 1.87175001
H 13.99958947 5.74895605 1.83963602
H 13.78221410 6.15753119 2.12919306
H 18.03557392 6.04755894 2.01428937
H 17.68388782 5.85892830 1.95453971
20
Lattice="19.84414541 0 0 0 7.93765816 0 0 0 3.96882908" Properties=species:S:1:pos:R:3 energy=-0.0252767091 time_ps=0.070500 frame=56 pbc="T T T" comment="QML-FF atomic_amplitude checkpoint round_05; 10xH2; units=Angstrom"
H 1.85236561 2.10394789 2.04899624
H 2.11646347 1.86488119 1.91983284
H 5.74918414 2.05282899 1.78578995
H 6.15730311 1.91600009 2.18303913
H 9.94816412 2.34398310 1.96264645
H 9.89598129 1.62484598 2.00618263
H 13.75205979 1.89799367 1.77859501
H 14.02974379 2.07083541 2.19023407
H 17.85360355 1.88353638 2.20945895
H 17.86585819 2.08529270 1.75937013
H 1.66524093 6.00695082 2.21967597
H 2.30358815 5.89953642 1.74915311
H 6.36568178 5.49916627 1.17166829
H 5.54080547 6.40732098 2.79716079
H 10.23136522 5.83687317 2.09042302
H 9.61278019 6.06961407 1.87840607
H 14.20756899 6.05040585 1.90725778
H 13.57423458 5.85608139 2.06157130
H 18.20290262 6.11495871 2.00267947
H 17.51655911 5.79152854 1.96614961
20
Lattice="19.84414541 0 0 0 7.93765816 0 0 0 3.96882908" Properties=species:S:1:pos:R:3 energy=-0.0217915160 time_ps=0.071500 frame=57 pbc="T T T" comment="QML-FF atomic_amplitude checkpoint round_05; 10xH2; units=Angstrom"
H 1.76256596 2.24069515 2.00695466
H 2.20626312 1.72813394 1.96187442
H 5.73510101 2.05631480 1.85806609
H 6.17138623 1.91251429 2.11076299
H 9.88861308 2.24553800 2.17603988
H 9.95553233 1.72329108 1.79278920
H 13.75088002 1.93043184 1.72037935
H 14.03092355 2.03839724 2.24844974
H 17.96802496 1.71052807 2.32764384
H 17.75143678 2.25830101 1.64118524
H 1.65310372 6.06875812 1.98849576
H 2.31572537 5.83772912 1.98033332
H 6.36185071 5.34327779 1.10309952
H 5.54463654 6.56320945 2.86572956
H 10.10948994 5.75445871 2.04345310
H 9.73465547 6.15202853 1.92537598
H 14.28209080 6.16372686 1.96451617
H 13.49971277 5.74276039 2.00431291
H 18.19703466 6.16594352 1.98037908
H 17.52242707 5.74054373 1.98845000
20
Lattice="19.84414541 0 0 0 7.93765816 0 0 0 3.96882908" Properties=species:S:1:pos:R:3 energy=-0.0244996569 time_ps=0.073000 frame=58 pbc="T T T" comment="QML-FF atomic_amplitude checkpoint round_05; 10xH2; units=Angstrom"
H 1.69536710 2.18262768 1.97356698
H 2.27346198 1.78620140 1.99526210
H 5.65299553 2.13540901 1.97378166
H 6.25349172 1.83342007 1.99504742
H 9.80379732 1.85433828 2.34224992
H 10.04034809 2.11449080 1.62657917
H 13.76958182 2.00316196 1.67736827
H 14.01222175 1.96566712 2.29146081
H 17.95980963 1.83429579 2.06247453
H 17.75965211 2.13453329 1.90635455
H 1.90216838 6.09564168 1.58283092
H 2.06666071 5.81084556 2.38599816
H 6.46080098 5.02052673 0.92860743
H 5.44568627 6.88596051 3.04022165
H 9.96472751 5.68606291 2.01034620
H 9.87941790 6.22042433 1.95848288
H 13.88593814 6.19592725 2.06839288
H 13.89586543 5.71056000 1.90043620
H 17.97305669 6.08351694 1.97431455
H 17.74640504 5.82297030 1.99451453
20
Lattice="19.84414541 0 0 0 7.93765816 0 0 0 3.96882908" Properties=species:S:1:pos:R:3 energy=-0.0231221638 time_ps=0.074000 frame=59 pbc="T T T" comment="QML-FF atomic_amplitude checkpoint round_05; 10xH2; units=Angstrom"
H 1.77630385 2.01024539 1.96879247
H 2.19252523 1.95858369 2.00003661
H 5.69512179 2.15548896 2.08564762
H 6.21136545 1.81334012 1.88318146
H 9.79920091 1.63213694 2.12131795
H 10.04494450 2.33669214 1.84751113
H 13.79736069 1.99757101 1.81467695
H 13.98444288 1.97125807 2.15415213
H 18.01857877 1.78806062 1.86489352
H 17.70088296 2.18076846 2.10393556
H 2.15556320 5.98913293 1.67747660
H 1.81326588 5.91735432 2.29135249
H 6.55036705 4.76488034 0.88412770
H 5.35612020 7.14160691 3.08470138
H 9.90053262 5.64312401 2.05252986
H 9.94361279 6.26336324 1.91629922
H 13.61566557 6.21195887 2.13959102
H 14.16613800 5.69452838 1.82923806
H 17.97750976 6.14043397 1.97233701
H 17.74195198 5.76605328 1.99649207
20
Lattice="19.84414541 0 0 0 7.93765816 0 0 0 3.96882908" Properties=species:S:1:pos:R:3 energy=-0.0227469633 time_ps=0.075500 frame=60 pbc="T T T" comment="QML-FF atomic_amplitude checkpoint round_05; 10xH2; units=Angstrom"
H 1.71919036 1.78618014 1.89348638
H 2.24963872 2.18264894 2.07534270
H 5.78912616 2.07132047 2.21614342
H 6.11736109 1.89750861 1.75268566
H 9.83330758 1.71755978 1.63392018
H 10.01083783 2.25126930 2.33490891
H 13.69308144 2.03219996 1.78837387
H 14.08872214 1.93662912 2.18045521
H 17.99928372 1.70487946 1.76237101
H 17.72017802 2.26394962 2.20645807
H 2.36087538 5.94345448 2.07965640
H 1.60795370 5.96303276 1.88917269
H 6.70124633 4.47199587 0.76600893
H 5.20524092 7.43449138 3.20282015
H 9.72026071 5.71821086 2.13371857
H 10.12388470 6.18827638 1.83511051
H 13.56725615 6.01558540 2.04096341
H 14.21454742 5.89090184 1.92786567
H 18.01524152 6.24497114 1.91150150
H 17.70422021 5.66151610 2.05732758
20
Lattice="19.84414541 0 0 0 7.93765816 0 0 0 3.96882908" Properties=species:S:1:pos:R:3 energy=-0.0231021784 time_ps=0.076500 frame=61 pbc="T T T" comment="QML-FF atomic_amplitude checkpoint round_05; 10xH2; units=Angstrom"
H 1.77581961 1.70825882 1.86707194
H 2.19300947 2.26057026 2.10175714
H 5.80230241 1.94346986 2.26611982
H 6.10418483 2.02535922 1.70270926
H 9.93346846 1.98416482 1.60541239
H 9.91067695 1.98466426 2.36341669
H 13.65085854 2.09473313 1.77955683
H 14.13094503 1.87409595 2.18927225
H 17.86990831 1.86049129 1.83487041
H 17.84955342 2.10833779 2.13395867
H 2.25781399 5.98994180 2.25968829
H 1.71101509 5.91654545 1.70914079
H 6.85092815 4.29018826 0.62786970
H 5.05555910 7.61629898 3.34095938
H 9.61578146 5.84837986 2.15256837
H 10.22836395 6.05810739 1.81626071
H 13.67402961 5.87085677 1.91992265
H 14.10777396 6.03563047 2.04890643
H 17.99340200 6.23550988 1.79910356
H 17.72605974 5.67097736 2.16972552
20
Lattice="19.84414541 0 0 0 7.93765816 0 0 0 3.96882908" Properties=species:S:1:pos:R:3 energy=-0.0251403948 time_ps=0.078000 frame=62 pbc="T T T" comment="QML-FF atomic_amplitude checkpoint round_05; 10xH2; units=Angstrom"
H 1.99579252 1.77564955 1.90140216
H 1.97303656 2.19317953 2.06742692
H 5.91722650 1.68480712 2.12593562
H 5.98926075 2.28402197 1.84289346
H 10.02465498 2.34292768 1.93897860
H 9.81949043 1.62590140 2.02985048
H 13.62659199 2.12358287 1.90434188
H 14.15521159 1.84524621 2.06448720
H 17.81514159 1.72491860 1.74187933
H 17.90432015 2.24391048 2.22694975
H 1.91863854 6.10173696 2.19623936
H 2.05019055 5.80475029 1.77258972
H 7.06130501 4.08049224 0.44884204
H 4.84518224 7.82599500 3.51998704
H 9.70302422 6.11831049 2.15900666
H 10.14112119 5.78817675 1.80982242
H 13.80988745 5.66045750 1.77142800
H 13.97191612 6.24602975 2.19740108
H 17.99270638 6.02593766 1.75907115
H 17.72675535 5.88054959 2.20975794
20
Lattice="19.84414541 0 0 0 7.93765816 0 0 0 3.96882908" Properties=species:S:1:pos:R:3 energy=-0.0243617872 time_ps=0.079000 frame=63 pbc="T T T" comment="QML-FF atomic_amplitude checkpoint round_05; 10xH2; units=Angstrom"
H 2.16966496 1.72663113 1.82288056
H 1.79916412 2.24219796 2.14594852
H 6.02385410 1.63877727 1.92079451
H 5.88263315 2.33005181 2.04803457
H 9.98956481 2.26286226 2.19468379
H 9.85458060 1.70596682 1.77414529
H 13.67688940 2.11576335 1.97508879
H 14.10491417 1.85306573 1.99374030
H 17.78304533 1.72868300 1.72533161
H 17.93641641 2.24014608 2.24349748
H 1.75343663 6.19184783 2.08644731
H 2.21539245 5.71463941 1.88238177
H 7.19930413 3.99717827 0.35837744
H 4.70718311 7.90930897 3.61045165
H 9.76470216 6.29400276 2.06012317
H 10.07944325 5.61248448 1.90870591
H 13.95052860 5.73346457 1.85836942
H 13.83127498 6.17302268 2.11045966
H 17.98086901 5.86812339 1.71290111
H 17.73859273 6.03836385 2.25592797
20
Lattice="19.84414541 0 0 0 7.93765816 0 0 0 3.96882908" Properties=species:S:1:pos:R:3 energy=-0.0255543196 time_ps=0.080500 frame=64 pbc="T T T" comment="QML-FF atomic_amplitude checkpoint round_05; 10xH2; units=Angstrom"
H 2.25526371 1.88040657 1.81079880
H 1.71356537 2.08842251 2.15803028
H 6.16605960 1.85174519 1.76109621
H 5.74042765 2.11708389 2.20773287
H 9.80934584 2.05112802 2.29853806
H 10.03479957 1.91770106 1.67029103
H 13.72596794 2.20723868 2.06171218
H 14.05583563 1.76159040 1.90711690
H 17.73378805 1.93155037 1.86799670
H 17.98567368 2.03727871 2.10083238
H 1.79510691 6.15800996 1.94642279
H 2.17372217 5.74847728 2.02240629
H 7.33216678 3.95647193 0.24403373
H 4.57432047 7.95001532 3.72479536
H 9.91154942 6.24988704 1.87752064
H 9.93259599 5.65660021 2.09130844
H 14.21620918 5.93856955 1.84858908
H 13.56559439 5.96791770 2.12024001
H 17.93225551 5.73984142 1.79002011
H 17.78720623 6.16664583 2.17880897
20
Lattice="19.84414541 0 0 0 7.93765816 0 0 0 3.96882908" Properties=species:S:1:pos:R:3 energy=-0.0237388483 time_ps=0.081500 frame=65 pbc="T T T" comment="QML-FF atomic_amplitude checkpoint round_05; 10xH2; units=Angstrom"
H 2.21381733 2.07552906 1.96933998
H 1.75501175 1.89330002 1.99948910
H 6.18838903 2.06134972 1.72749564
H 5.71809821 1.90747936 2.24133344
H 9.72016653 1.93138222 2.26380913
H 10.12397888 2.03744686 1.70501995
H 13.75294796 2.32219900 2.04993236
H 14.02885561 1.64663008 1.91889672
H 17.59477546 1.99606338 1.84504251
H 18.12468628 1.97276570 2.12378657
H 1.90859016 6.08235475 1.83895966
H 2.06023892 5.82413250 2.12986942
H 7.35590779 4.02065313 0.11769847
H 4.55057946 7.88583412 3.85113061
H 10.06300103 6.15446790 1.81038275
H 9.78114438 5.75201934 2.15844633
H 14.27555990 6.04335618 1.85020326
H 13.50624368 5.86313107 2.11862582
H 17.92044744 5.74543621 1.87838956
H 17.79901430 6.16105103 2.09043952
20
Lattice="19.84414541 0 0 0 7.93765816 0 0 0 3.96882908" Properties=species:S:1:pos:R:3 energy=-0.0222602136 time_ps=0.083000 frame=66 pbc="T T T" comment="QML-FF atomic_amplitude checkpoint round_05; 10xH2; units=Angstrom"
H 2.16523532 2.27603892 2.21243063
H 1.80359376 1.69279016 1.75639845
H 6.08590638 2.30986400 1.92198112
H 5.82058087 1.65896508 2.04684797
H 9.65607170 1.82730665 1.91730390
H 10.18807370 2.14152243 2.05152518
H 13.78645082 2.18755132 2.03509826
H 13.99535276 1.78127777 1.93373082
H 17.55822271 2.02803462 1.83114700
H 18.16123903 1.94079446 2.13768208
H 2.02952536 6.05577334 1.58012372
H 1.93930372 5.85071391 2.38870536
H 7.51582396 4.09633840 0.03133705
H 4.39066329 7.81014884 3.93749203
H 10.21058042 5.97462629 1.74774381
H 9.63356498 5.93186096 2.22108527
H 13.98575995 6.20152249 2.04479571
H 13.79604362 5.70496476 1.92403338
H 17.88983382 5.61325980 1.84886173
H 17.82962791 6.29322744 2.11996735
20
Lattice="19.84414541 0 0 0 7.93765816 0 0 0 3.96882908" Properties=species:S:1:pos:R:3 energy=-0.0216965979 time_ps=0.084000 frame=67 pbc="T T T" comment="QML-FF atomic_amplitude checkpoint round_05; 10xH2; units=Angstrom"
H 2.01054882 2.20727868 2.15646547
H 1.95828026 1.76155040 1.81236361
H 5.98954207 2.31197701 2.06121996
H 5.91694517 1.65685208 1.90760913
H 9.62706983 1.85809858 1.69918135
H 10.21707558 2.11073050 2.26964773
H 13.84705095 2.16921546 2.05438638
H 13.93475262 1.79961362 1.91444271
H 17.77254075 1.98439949 1.86122520
H 17.94692099 1.98442959 2.10760388
H 2.07023003 6.03129830 1.66328651
H 1.89859905 5.87518895 2.30554257
H 7.62912852 4.14817736 0.02122135
H 4.27735873 7.75830989 3.94760773
H 10.12515184 5.86738227 1.79183418
H 9.71899357 6.03910497 2.17699490
H 13.73927490 6.28456668 2.15471975
H 14.04252867 5.62192057 1.81410933
H 17.82963550 5.69757182 1.79717099
H 17.88982624 6.20891543 2.17165809
20
Lattice="19.84414541 0 0 0 7.93765816 0 0 0 3.96882908" Properties=species:S:1:pos:R:3 energy=-0.0251084102 time_ps=0.085500 frame=68 pbc="T T T" comment="QML-FF atomic_amplitude checkpoint round_05; 10xH2; units=Angstrom"
H 1.78622779 2.12574001 2.07911702
H 2.18260130 1.84308907 1.88971206
H 5.80602469 2.21796067 2.19379086
H 6.10046255 1.75086842 1.77503822
H 9.85249802 2.04222465 1.73222429
H 9.99164739 1.92660443 2.23660479
H 13.94129343 2.29554793 2.15724697
H 13.84051015 1.67328115 1.81158212
H 17.95984879 1.86692658 1.64034740
H 17.75961294 2.10190250 2.32848168
H 2.16275849 5.94625712 1.85121874
H 1.80607059 5.96023012 2.11761034
H 7.70570137 4.18537379 0.05371982
H 4.20078587 7.72111345 3.91510926
H 9.97092084 5.67954779 1.91587597
H 9.87322457 6.22693946 2.05295312
H 13.53050786 5.94591751 2.04160841
H 14.25129571 5.96056973 1.92722067
H 17.78144620 5.89896409 1.69989133
H 17.93801554 6.00752316 2.26893776
20
Lattice="19.84414541 0 0 0 7.93765816 0 0 0 3.96882908" Properties=species:S:1:pos:R:3 energy=-0.0223297016 time_ps=0.086500 frame=69 pbc="T T T" comment="QML-FF atomic_amplitude checkpoint round_05; 10xH2; units=Angstrom"
H 1.63743706 2.16670904 2.04830569
H 2.33139203 1.80212004 1.92052339
H 5.75069905 2.12287580 2.18119634
H 6.15578819 1.84595328 1.78763274
H 9.99950325 2.19021888 1.74764406
H 9.84464215 1.77861021 2.22118502
H 13.99012299 2.27800461 2.09517691
H 13.79168058 1.69082447 1.87365218
H 17.96774396 1.85140435 1.67421041
H 17.75171778 2.11742474 2.29461867
H 2.25811308 5.91407509 1.78213019
H 1.71071600 5.99241215 2.18669889
H 7.69094395 4.19746596 0.07996321
H 4.21554329 7.70902128 3.88886588
H 9.92804062 5.54986863 1.98204406
H 9.91610479 6.35661861 1.98678503
H 13.61179629 5.64312292 1.92400213
H 14.17000728 6.26336433 2.04482695
H 17.82863222 6.01066940 1.64406651
H 17.89082952 5.89581785 2.32476257
20
Lattice="19.84414541 0 0 0 7.93765816 0 0 0 3.96882908" Properties=species:S:1:pos:R:3 energy=-0.0259503404 time_ps=0.088000 frame=70 pbc="T T T" comment="QML-FF atomic_amplitude checkpoint round_05; 10xH2; units=Angstrom"
H 1.75087409 2.07180982 1.96334571
H 2.21795499 1.89701926 2.00548337
H 5.64128986 2.11588454 1.97296268
H 6.26519738 1.85294454 1.99586640
H 10.11855503 2.21524855 1.86163185
H 9.72559038 1.75358053 2.10719723
H 14.02616031 2.14667493 1.88644298
H 13.75564326 1.82215415 2.08238610
H 17.83956150 1.76343987 1.92580080
H 17.87990023 2.20538921 2.04302828
H 2.24499353 5.87580938 1.85595874
H 1.72383555 6.03067786 2.11287034
H 7.72820013 4.20051830 0.10832864
H 4.17828712 7.70596894 3.86050044
H 9.89996764 5.77548784 2.12071181
H 9.94417777 6.13099941 1.84811727
H 14.01433370 5.66135158 1.86264673
H 13.76746988 6.24513566 2.10618235
H 18.01648169 6.19542173 1.87763684
H 17.70298005 5.71106551 2.09119224
20
Lattice="19.84414541 0 0 0 7.93765816 0 0 0 3.96882908" Properties=species:S:1:pos:R:3 energy=-0.0207472495 time_ps=0.089000 frame=71 pbc="T T T" comment="QML-FF atomic_amplitude checkpoint round_05; 10xH2; units=Angstrom"
H 1.82724061 2.02209166 1.84225708
H 2.14158847 1.94673742 2.12657200
H 5.64329836 2.07400453 1.89007314
H 6.26318888 1.89482455 2.07875594
H 10.09367615 2.09571564 1.94508762
H 9.75046926 1.87311344 2.02374146
H 14.09176482 2.12234958 1.65899647
H 13.69003875 1.84647950 2.30983262
H 17.85436221 1.58194756 2.02440930
H 17.86509952 2.38688152 1.94441978
H 2.19198819 5.90894046 1.93753308
H 1.77684090 5.99754679 2.03129601
H 7.76360897 4.21931560 0.13397299
H 4.14287827 7.68717164 3.83485610
H 9.85744806 5.85716938 2.23313391
H 9.98669735 6.04931786 1.73569517
H 14.26041721 5.80624907 1.89402632
H 13.52138636 6.10023818 2.07480276
H 18.07737229 6.26331743 2.11298214
H 17.64208945 5.64316982 1.85584694
20
Lattice="19.84414541 0 0 0 7.93765816 0 0 0 3.96882908" Properties=species:S:1:pos:R:3 energy=-0.0247629081 time_ps=0.090500 frame=72 pbc="T T T" comment="QML-FF atomic_amplitude checkpoint round_05; 10xH2; units=Angstrom"
H 1.91993016 2.01324462 1.60042496
H 2.04889892 1.95558446 2.36840412
H 5.72810555 1.92808060 1.83878064
H 6.17838170 2.04074849 2.13004844
H 10.28685139 2.03857040 2.00445543
H 9.55729402 1.93025868 1.96437365
H 14.02581431 2.09542559 1.75417547
H 13.75598927 1.87340349 2.21465361
H 17.88547564 1.74312598 2.19017701
H 17.83398610 2.22570310 1.77865207
H 2.31347552 5.94993493 1.95722963
H 1.65535357 5.95655232 2.01159945
H 7.77063795 4.27164221 0.14763383
H 4.13584930 7.63484503 3.82119525
H 9.76229775 6.00363338 2.32964042
H 10.08184766 5.90285387 1.63918866
H 14.06172500 6.13725898 2.06916610
H 13.72007857 5.76922826 1.89966299
H 17.98897062 6.05640609 2.27034721
H 17.73049112 5.85008116 1.69848187
20
Lattice="19.84414541 0 0 0 7.93765816 0 0 0 3.96882908" Properties=species:S:1:pos:R:3 energy=-0.0228123051 time_ps=0.091500 frame=73 pbc="T T T" comment="QML-FF atomic_amplitude checkpoint round_05; 10xH2; units=Angstrom"
H 2.03572940 1.99423224 1.66996395
H 1.93309968 1.97459684 2.29886513
H 5.73838299 1.80069745 1.81269836
H 6.16810426 2.16813163 2.15613072
H 10.23038610 1.97538034 2.01456091
H 9.61375931 1.99344874 1.95426817
H 13.98445717 2.07612997 1.89260803
H 13.79734640 1.89269911 2.07622105
H 17.91654105 1.97589759 2.32319979
H 17.80292068 1.99293149 1.64562929
H 2.28713768 5.99980861 2.04986358
H 1.68169140 5.90667863 1.91896551
H 7.69633369 4.25452102 0.12007472
H 4.21015355 7.65196622 3.84875436
H 9.77407007 6.10159561 2.15983855
H 10.07007534 5.80489164 1.80899053
H 13.87276686 6.30623022 2.28001521
H 13.90903671 5.60025702 1.68881387
H 17.86255799 5.82448443 2.27233308
H 17.85690375 6.08200282 1.69649600
20
Lattice="19.84414541 0 0 0 7.93765816 0 0 0 3.96882908" Properties=species:S:1:pos:R:3 energy=-0.0254655568 time_ps=0.093000 frame=74 pbc="T T T" comment="QML-FF atomic_amplitude checkpoint round_05; 10xH2; units=Angstrom"
H 2.18754974 1.87142239 1.88419931
H 1.78127934 2.09740669 2.08462977
H 5.88237959 1.78171340 1.86794450
H 6.02410765 2.18711568 2.10088458
H 10.12572033 1.81144837 2.01886634
H 9.71842508 2.15738071 1.94996274
H 14.14886620 2.17599302 1.83132233
H 13.63293737 1.79283606 2.13750675
H 17.91386999 2.12001301 2.25688085
H 17.80559174 1.84881607 1.71194823
H 2.16851831 6.09876205 2.15846697
H 1.80031077 5.80772519 1.81036211
H 7.68644236 4.23892095 0.03271415
H 4.22004488 7.66756630 3.93611493
H 9.81299514 6.24596298 1.95675196
H 10.03115027 5.66052426 2.01207712
H 13.71554383 6.04361348 2.28471005
H 14.06625975 5.86287376 1.68411903
H 17.69402280 5.65327144 2.16164403
H 18.02543894 6.25321581 1.80718505
20
Lattice="19.84414541 0 0 0 7.93765816 0 0 0 3.96882908" Properties=species:S:1:pos:R:3 energy=-0.0252630176 time_ps=0.094000 frame=75 pbc="T T T" comment="QML-FF atomic_amplitude checkpoint round_05; 10xH2; units=Angstrom"
H 2.28507248 1.81980365 1.97194300
H 1.68375660 2.14902543 1.99688609
H 5.87012693 1.73215971 1.93050396
H 6.03636031 2.23666937 2.03832513
H 10.14090701 1.69613758 2.00762321
H 9.70323839 2.27269150 1.96120587
H 14.12942899 2.19156893 1.80830003
H 13.65237458 1.77726015 2.16052905
H 17.87046802 2.17888962 2.20280096
H 17.84899371 1.78993946 1.76602812
H 2.05304450 6.12731576 2.29613684
H 1.91578459 5.77917149 1.67269224
H 7.72642488 4.25404386 -0.05161345
H 4.18006237 7.65244339 4.02044254
H 9.92990576 6.27162063 1.90593009
H 9.91423965 5.63486661 2.06289899
H 13.66396963 5.72897245 2.13692578
H 14.11783394 6.17751480 1.83190330
H 17.68711131 5.77811589 1.90173028
H 18.03235043 6.12837136 2.06709880
20
Lattice="19.84414541 0 0 0 7.93765816 0 0 0 3.96882908" Properties=species:S:1:pos:R:3 energy=-0.0231328110 time_ps=0.095500 frame=76 pbc="T T T" comment="QML-FF atomic_amplitude checkpoint round_05; 10xH2; units=Angstrom"
H 2.22754073 1.84986023 2.05351279
H 1.74128835 2.11896885 1.91531629
H 5.80451165 1.67258900 1.99641014
H 6.10197560 2.29624008 1.97241894
H 9.96090929 1.72446088 2.06453220
H 9.88323612 2.24436820 1.90429688
H 13.89947712 2.13365666 1.80598369
H 13.88232645 1.83517242 2.16284540
H 17.87272201 2.23045970 2.15584994
H 17.84673973 1.73836938 1.81297914
H 1.85423222 5.97715034 2.28961545
H 2.11459686 5.92933691 1.67921363
H 7.85613546 4.25626349 -0.19140362
H 4.05035179 7.65022375 4.16023270
H 10.22265908 6.16760184 1.88037775
H 9.62148633 5.73888541 2.08845134
H 13.83158151 5.56409289 1.89706336
H 13.95022206 6.34239436 2.07176573
H 17.65669780 5.93388103 1.61881565
H 18.06276393 5.97260622 2.35001343
20
Lattice="19.84414541 0 0 0 7.93765816 0 0 0 3.96882908" Properties=species:S:1:pos:R:3 energy=-0.0254944149 time_ps=0.096500 frame=77 pbc="T T T" comment="QML-FF atomic_amplitude checkpoint round_05; 10xH2; units=Angstrom"
H 2.13715361 1.90791373 2.13351241
H 1.83167547 2.06091535 1.83531667
H 5.77423737 1.74523941 2.05777635
H 6.13224988 2.22358968 1.91105273
H 9.84338274 1.80065629 2.07718359
H 10.00076267 2.16817279 1.89164549
H 13.74711895 2.19608618 1.71957965
H 14.03468462 1.77274290 2.24924944
H 17.97245934 2.29677277 2.07967659
H 17.74700240 1.67205632 1.88915249
H 1.76448203 5.93238396 2.14624962
H 2.20434705 5.97410329 1.82257946
H 8.03864578 4.25311430 -0.23663275
H 3.86784146 7.65337295 4.20546183
H 10.26168760 5.97936348 1.87716196
H 9.58245781 5.92712377 2.09166712
H 14.08857864 5.76780215 1.84955342
H 13.69322493 6.13868510 2.11927566
H 17.80583153 5.97542320 1.72039710
H 17.91363021 5.93106404 2.24843198
20
Lattice="19.84414541 0 0 0 7.93765816 0 0 0 3.96882908" Properties=species:S:1:pos:R:3 energy=-0.0230722908 time_ps=0.098000 frame=78 pbc="T T T" comment="QML-FF atomic_amplitude checkpoint round_05; 10xH2; units=Angstrom"
H 2.13111079 1.95470686 2.32293776
H 1.83771829 2.01412222 1.64589132
H 5.69365615 1.87856441 2.08149693
H 6.21283110 2.09026467 1.88733215
H 9.62643672 1.75884270 2.04872167
H 10.21770869 2.20998638 1.92010741
H 13.64660937 2.13431369 1.80050751
H 14.13519420 1.83451539 2.16832158
H 18.03650763 2.23931719 1.93917802
H 17.68295411 1.72951189 2.02965106
H 1.63572832 5.82467920 1.99111751
H 2.33310077 6.08180805 1.97771158
H 8.26039150 4.28979552 -0.34538297
H 3.64609575 7.61669173 4.31421205
H 10.12932946 5.66946150 1.79631401
H 9.71481594 6.23702574 2.17251507
H 14.25932813 6.05520209 1.88319559
H 13.52247544 5.85128515 2.08563350
H 18.14220763 5.89723166 1.85743984
H 17.57725411 6.00925559 2.11138924
20
Lattice="19.84414541 0 0 0 7.93765816 0 0 0 3.96882908" Properties=species:S:1:pos:R:3 energy=-0.0229446051 time_ps=0.099500 frame=79 pbc="T T T" comment="QML-FF atomic_amplitude checkpoint round_05; 10xH2; units=Angstrom"
H 2.01392275 1.99921306 2.20189090
H 1.95490633 1.96961602 1.76693819
H 5.58463607 2.01494187 2.00305766
H 6.32185118 1.95388722 1.96577142
H 9.69261952 1.88685370 1.95498319
H 10.15152589 2.08197538 2.01384589
H 13.69883781 2.15063024 2.00031906
H 14.08296577 1.81819884 1.96851003
H 17.89036495 2.15562736 1.79559093
H 17.82909679 1.81320173 2.17323815
H 1.80313710 5.91141968 1.87936006
H 2.16569198 5.99506757 2.08946902
H 8.49047449 4.28376161 -0.44040430
H 3.41601276 7.62272564 4.40923339
H 9.74130188 5.63260676 1.92065488
H 10.10284353 6.27388049 2.04817421
H 13.94146021 6.24305123 2.08163941
H 13.84034336 5.66343601 1.88718967
H 18.28045107 5.83607012 1.97202352
H 17.43901066 6.07041712 1.99680556
