2
frame=0 time_ps=0.000000 energy_hartree=-0.0484769210 Properties=species:S:1:pos_bohr:R:3
H 0.06155896 -0.13311523 -0.19690021
H -0.05306540 0.13258690 1.54236228
2
frame=1 time_ps=0.005000 energy_hartree=-0.0095683515 Properties=species:S:1:pos_bohr:R:3
H -0.67249646 1.15970978 1.73859177
H 0.11317778 0.04005294 -1.92036662
2
frame=2 time_ps=0.010000 energy_hartree=-0.0386556449 Properties=species:S:1:pos_bohr:R:3
H -4.05561971 3.95893168 9.78039724
H 1.63495069 -2.42649380 -9.95148841
2
frame=3 time_ps=0.015000 energy_hartree=-0.0386556449 Properties=species:S:1:pos_bohr:R:3
H -5.03646066 5.65273300 16.80745313
H 3.30211495 -4.32462756 -14.77692333
2
frame=4 time_ps=0.020000 energy_hartree=-0.0386556449 Properties=species:S:1:pos_bohr:R:3
H -6.52696985 6.59112172 20.86557518
H 3.32829324 -7.17416000 -17.84932952
2
frame=5 time_ps=0.025000 energy_hartree=-0.0386556449 Properties=species:S:1:pos_bohr:R:3
H -6.47396764 5.39967133 21.45823936
H 2.12961699 -9.90856491 -19.90877085
2
frame=6 time_ps=0.030000 energy_hartree=-0.0386556449 Properties=species:S:1:pos_bohr:R:3
H -6.12438058 4.90067877 20.37197881
H 1.50284142 -12.12681463 -19.98683602
2
frame=7 time_ps=0.035000 energy_hartree=-0.0386556449 Properties=species:S:1:pos_bohr:R:3
H -4.79413730 5.39606606 19.19027642
H 0.35813093 -14.02160219 -20.10335798
2
frame=8 time_ps=0.040000 energy_hartree=-0.0386556449 Properties=species:S:1:pos_bohr:R:3
H -1.14870576 5.49908516 18.47284709
H -1.64612231 -15.37969686 -19.72266118
2
frame=9 time_ps=0.045000 energy_hartree=-0.0386556449 Properties=species:S:1:pos_bohr:R:3
H 2.04809366 7.02074464 19.33084672
H -4.10186284 -16.94728633 -19.75312889
2
frame=10 time_ps=0.050000 energy_hartree=-0.0386556449 Properties=species:S:1:pos_bohr:R:3
H 4.03299691 7.66568656 20.86898311
H -5.42332273 -19.27006809 -18.35239276
2
frame=11 time_ps=0.055000 energy_hartree=-0.0386556449 Properties=species:S:1:pos_bohr:R:3
H 4.00634757 7.17800045 22.88169022
H -5.25598551 -19.79393753 -17.48125702
2
frame=12 time_ps=0.060000 energy_hartree=-0.0386556449 Properties=species:S:1:pos_bohr:R:3
H 2.89451539 5.52387104 24.39053932
H -4.21772475 -19.17475782 -17.39150829
2
frame=13 time_ps=0.065000 energy_hartree=-0.0386556449 Properties=species:S:1:pos_bohr:R:3
H 2.57114378 2.41346288 25.10139249
H -4.59042346 -19.51433420 -17.96292834
2
frame=14 time_ps=0.070000 energy_hartree=-0.0386556449 Properties=species:S:1:pos_bohr:R:3
H 2.96522878 -1.41356723 25.84436597
H -3.64110900 -18.77902541 -19.58116817
2
frame=15 time_ps=0.075000 energy_hartree=-0.0386556449 Properties=species:S:1:pos_bohr:R:3
H 3.95360533 -4.89677749 25.51588383
H -2.21441805 -17.85847740 -21.55077246
2
frame=16 time_ps=0.080000 energy_hartree=-0.0386556449 Properties=species:S:1:pos_bohr:R:3
H 4.26073656 -7.12308477 24.32568415
H -0.82949219 -17.23386411 -22.97220667
2
frame=17 time_ps=0.085000 energy_hartree=-0.0386556449 Properties=species:S:1:pos_bohr:R:3
H 4.82498302 -8.26329324 24.62188739
H -1.28883463 -17.30981893 -24.22869606
2
frame=18 time_ps=0.090000 energy_hartree=-0.0386556449 Properties=species:S:1:pos_bohr:R:3
H 6.29003682 -9.03310123 23.76534212
H -1.01541448 -16.11967692 -26.03514510
2
frame=19 time_ps=0.095000 energy_hartree=-0.0386556449 Properties=species:S:1:pos_bohr:R:3
H 7.77651633 -9.95178668 24.62149091
H -1.55032703 -15.06019140 -28.89049724
