2
frame=0 time_ps=0.000000 energy_hartree=-0.0568915247 Properties=species:S:1:pos_bohr:R:3
H -0.01654200 0.04658610 -0.13714206
H 0.02783810 -0.03033247 1.52184217
2
frame=1 time_ps=0.005000 energy_hartree=-0.0386556449 Properties=species:S:1:pos_bohr:R:3
H 1.62180590 -0.83226975 10.54649905
H -0.19705482 -0.55848849 -9.06253448
2
frame=2 time_ps=0.010000 energy_hartree=-0.0386556449 Properties=species:S:1:pos_bohr:R:3
H 2.57005932 -2.83805862 17.43013629
H -1.68843036 -2.47505858 -14.24474041
2
frame=3 time_ps=0.015000 energy_hartree=-0.0386556449 Properties=species:S:1:pos_bohr:R:3
H 3.41476064 -3.83979070 21.14576241
H -2.80774972 -4.00268959 -18.26289093
2
frame=4 time_ps=0.020000 energy_hartree=-0.0386556449 Properties=species:S:1:pos_bohr:R:3
H 2.98410304 -4.92741956 23.65506653
H -3.05140625 -4.19080689 -22.33257038
2
frame=5 time_ps=0.025000 energy_hartree=-0.0386556449 Properties=species:S:1:pos_bohr:R:3
H 3.44801002 -7.60662631 22.87352272
H -4.01587121 -4.36117043 -25.13445535
2
frame=6 time_ps=0.030000 energy_hartree=-0.0386556449 Properties=species:S:1:pos_bohr:R:3
H 3.36320694 -9.68840300 21.51123797
H -2.88111435 -5.62648781 -28.45080957
2
frame=7 time_ps=0.035000 energy_hartree=-0.0386556449 Properties=species:S:1:pos_bohr:R:3
H 4.06248829 -9.17333992 19.38912212
H -1.07782612 -7.01412477 -31.49520713
2
frame=8 time_ps=0.040000 energy_hartree=-0.0386556449 Properties=species:S:1:pos_bohr:R:3
H 5.19197556 -11.28470395 18.80889660
H 1.66414651 -7.67232130 -33.35324006
2
frame=9 time_ps=0.045000 energy_hartree=-0.0386556449 Properties=species:S:1:pos_bohr:R:3
H 5.88919522 -14.09720197 19.19565414
H 3.71311073 -9.19408846 -35.27264454
2
frame=10 time_ps=0.050000 energy_hartree=-0.0386556449 Properties=species:S:1:pos_bohr:R:3
H 5.11812615 -16.20611864 19.55368668
H 4.28489392 -9.41853867 -36.01107112
2
frame=11 time_ps=0.055000 energy_hartree=-0.0386556449 Properties=species:S:1:pos_bohr:R:3
H 3.68994231 -17.66173846 19.32240169
H 4.10032963 -9.32713554 -36.56361330
2
frame=12 time_ps=0.060000 energy_hartree=-0.0386556449 Properties=species:S:1:pos_bohr:R:3
H 2.46927064 -18.80862266 18.95789030
H 5.43484048 -9.11136013 -36.19694109
2
frame=13 time_ps=0.065000 energy_hartree=-0.0386556449 Properties=species:S:1:pos_bohr:R:3
H 2.42608493 -18.93435198 19.36675882
H 8.06619746 -9.29324548 -34.55516655
2
frame=14 time_ps=0.070000 energy_hartree=-0.0386556449 Properties=species:S:1:pos_bohr:R:3
H 2.63694983 -20.20440279 18.95786146
H 8.72163620 -10.47737901 -32.43461679
2
frame=15 time_ps=0.075000 energy_hartree=-0.0386556449 Properties=species:S:1:pos_bohr:R:3
H 2.34654219 -20.30962146 18.22366461
H 9.75972260 -12.06158100 -31.75578842
2
frame=16 time_ps=0.080000 energy_hartree=-0.0386556449 Properties=species:S:1:pos_bohr:R:3
H 1.94423181 -19.88371509 17.51727545
H 11.56217349 -13.91922016 -31.06869884
2
frame=17 time_ps=0.085000 energy_hartree=-0.0386556449 Properties=species:S:1:pos_bohr:R:3
H 1.61130064 -17.15666218 16.32209634
H 12.35697146 -16.04226414 -29.19428406
2
frame=18 time_ps=0.090000 energy_hartree=-0.0386556449 Properties=species:S:1:pos_bohr:R:3
H 0.57161891 -15.77901562 13.58306252
H 13.48666373 -18.48587687 -26.64709625
2
frame=19 time_ps=0.095000 energy_hartree=-0.0386556449 Properties=species:S:1:pos_bohr:R:3
H -1.18302260 -14.13635080 11.55472237
H 14.60428318 -21.03329536 -25.04310989
