2
frame=0 time_ps=0.000000 energy_hartree=-0.0308439331 Properties=species:S:1:pos_bohr:R:3
H -0.16208194 -0.28042667 -0.23447607
H 0.12491757 0.26247346 1.60907370
2
frame=1 time_ps=0.005000 energy_hartree=-0.0148352850 Properties=species:S:1:pos_bohr:R:3
H -1.39294879 -1.16632188 -1.86752109
H 0.29982658 0.86273166 2.58323576
2
frame=2 time_ps=0.010000 energy_hartree=-0.0386280630 Properties=species:S:1:pos_bohr:R:3
H -3.64727878 -3.64165732 -1.25317461
H 2.76571628 2.86576403 3.03510122
2
frame=3 time_ps=0.015000 energy_hartree=-0.0386556449 Properties=species:S:1:pos_bohr:R:3
H -10.13396127 -8.14906726 -3.64307586
H 8.07586257 7.01011852 6.93733374
2
frame=4 time_ps=0.020000 energy_hartree=-0.0386556449 Properties=species:S:1:pos_bohr:R:3
H -14.32777781 -11.09155946 -5.11718766
H 10.24520464 10.17264514 7.04097640
2
frame=5 time_ps=0.025000 energy_hartree=-0.0386556449 Properties=species:S:1:pos_bohr:R:3
H -16.72523753 -13.03313530 -5.78670055
H 11.20066094 12.82307642 7.21758901
2
frame=6 time_ps=0.030000 energy_hartree=-0.0386556449 Properties=species:S:1:pos_bohr:R:3
H -18.19157854 -13.84655162 -5.07417811
H 12.24531899 15.05951648 8.44284926
2
frame=7 time_ps=0.035000 energy_hartree=-0.0386556449 Properties=species:S:1:pos_bohr:R:3
H -19.39549644 -14.86307039 -5.47965537
H 13.24101624 17.12226932 7.85726135
2
frame=8 time_ps=0.040000 energy_hartree=-0.0386556449 Properties=species:S:1:pos_bohr:R:3
H -19.67759038 -15.58748139 -6.16057924
H 12.71866153 19.97594002 7.05472210
2
frame=9 time_ps=0.045000 energy_hartree=-0.0386556449 Properties=species:S:1:pos_bohr:R:3
H -18.63859749 -15.65408647 -6.48422612
H 12.30730148 23.50002110 7.89942252
2
frame=10 time_ps=0.050000 energy_hartree=-0.0386556449 Properties=species:S:1:pos_bohr:R:3
H -17.56524957 -15.90941259 -6.43775007
H 11.29146754 25.90857957 8.60689119
2
frame=11 time_ps=0.055000 energy_hartree=-0.0386556449 Properties=species:S:1:pos_bohr:R:3
H -15.92611342 -14.39036223 -7.79363617
H 11.03339760 26.99575924 10.17763899
2
frame=12 time_ps=0.060000 energy_hartree=-0.0386556449 Properties=species:S:1:pos_bohr:R:3
H -13.42494526 -12.86155484 -11.25804696
H 11.76529847 27.75083078 12.53704291
2
frame=13 time_ps=0.065000 energy_hartree=-0.0386556449 Properties=species:S:1:pos_bohr:R:3
H -10.87699423 -12.52823924 -11.89129271
H 12.42526159 28.10231419 13.89760567
2
frame=14 time_ps=0.070000 energy_hartree=-0.0386556449 Properties=species:S:1:pos_bohr:R:3
H -10.75992891 -11.69495115 -12.27182100
H 12.59234380 30.07149316 14.32620180
2
frame=15 time_ps=0.075000 energy_hartree=-0.0386556449 Properties=species:S:1:pos_bohr:R:3
H -11.03076912 -12.10132455 -12.03559352
H 12.82210505 30.82062110 15.56566596
2
frame=16 time_ps=0.080000 energy_hartree=-0.0386556449 Properties=species:S:1:pos_bohr:R:3
H -12.18393934 -14.10710858 -11.84200029
H 13.95711917 32.16663935 17.14964268
2
frame=17 time_ps=0.085000 energy_hartree=-0.0386556449 Properties=species:S:1:pos_bohr:R:3
H -13.86050863 -16.16565782 -12.84977757
H 15.21469077 32.31638996 18.39832320
2
frame=18 time_ps=0.090000 energy_hartree=-0.0386556449 Properties=species:S:1:pos_bohr:R:3
H -14.01246602 -16.43941847 -13.32162339
H 16.79925860 32.52326618 20.86216545
2
frame=19 time_ps=0.095000 energy_hartree=-0.0386556449 Properties=species:S:1:pos_bohr:R:3
H -14.21449257 -17.88505420 -12.54673234
H 17.75095194 32.01920634 23.71605241
