2
frame=0 time_ps=0.000000 energy_hartree=-0.0455506901 Properties=species:S:1:pos_bohr:R:3
H 0.19381022 0.07249405 -0.16115565
H -0.23425481 -0.07739691 1.57497020
2
frame=1 time_ps=0.005000 energy_hartree=-0.0386556449 Properties=species:S:1:pos_bohr:R:3
H -2.63605843 -0.74725541 10.23963589
H 1.57599395 -0.38678086 -8.74658202
2
frame=2 time_ps=0.010000 energy_hartree=-0.0386556449 Properties=species:S:1:pos_bohr:R:3
H -5.20324461 -3.64387310 17.34021275
H 3.94274222 -2.10786622 -16.45419097
2
frame=3 time_ps=0.015000 energy_hartree=-0.0386556449 Properties=species:S:1:pos_bohr:R:3
H -5.77852314 -4.25723446 21.36913041
H 4.30577582 -3.70683395 -22.34085682
2
frame=4 time_ps=0.020000 energy_hartree=-0.0386556449 Properties=species:S:1:pos_bohr:R:3
H -7.77944307 -4.26907886 23.38961935
H 3.90287477 -4.86504825 -27.38080290
2
frame=5 time_ps=0.025000 energy_hartree=-0.0386556449 Properties=species:S:1:pos_bohr:R:3
H -8.49652819 -4.29903430 25.36129075
H 5.31998870 -5.32607151 -31.91571056
2
frame=6 time_ps=0.030000 energy_hartree=-0.0386556449 Properties=species:S:1:pos_bohr:R:3
H -8.03201095 -4.80328608 27.55508304
H 7.32697162 -5.48669786 -33.90438015
2
frame=7 time_ps=0.035000 energy_hartree=-0.0386556449 Properties=species:S:1:pos_bohr:R:3
H -7.42648998 -5.36655261 30.83905744
H 9.58698513 -6.21882670 -37.19299697
2
frame=8 time_ps=0.040000 energy_hartree=-0.0386556449 Properties=species:S:1:pos_bohr:R:3
H -6.44739805 -6.13915849 33.54841651
H 11.65991941 -5.82662116 -40.59949460
2
frame=9 time_ps=0.045000 energy_hartree=-0.0386556449 Properties=species:S:1:pos_bohr:R:3
H -6.91454198 -7.76156722 35.41872591
H 13.23402647 -5.53953697 -41.80364858
2
frame=10 time_ps=0.050000 energy_hartree=-0.0386556449 Properties=species:S:1:pos_bohr:R:3
H -8.51580615 -10.10271862 36.66405258
H 13.03719742 -6.80051424 -43.31244723
2
frame=11 time_ps=0.055000 energy_hartree=-0.0386556449 Properties=species:S:1:pos_bohr:R:3
H -10.52103870 -12.66941147 39.64798148
H 14.38245605 -6.57290976 -44.39124495
2
frame=12 time_ps=0.060000 energy_hartree=-0.0386556449 Properties=species:S:1:pos_bohr:R:3
H -11.09344184 -13.85572293 41.75505812
H 14.74477598 -4.99944021 -44.29657986
2
frame=13 time_ps=0.065000 energy_hartree=-0.0386556449 Properties=species:S:1:pos_bohr:R:3
H -11.73973630 -13.06720377 42.36325532
H 16.00453363 -2.17844444 -45.37344564
2
frame=14 time_ps=0.070000 energy_hartree=-0.0386556449 Properties=species:S:1:pos_bohr:R:3
H -12.58008986 -11.86716868 42.33185048
H 18.35871122 -1.10458065 -46.04021741
2
frame=15 time_ps=0.075000 energy_hartree=-0.0386556449 Properties=species:S:1:pos_bohr:R:3
H -13.60630708 -10.34494918 41.78626472
H 21.38812002 0.13238934 -47.08616493
2
frame=16 time_ps=0.080000 energy_hartree=-0.0386556449 Properties=species:S:1:pos_bohr:R:3
H -15.08020644 -9.72697242 41.37627524
H 24.08028266 1.90954203 -49.52683650
2
frame=17 time_ps=0.085000 energy_hartree=-0.0386556449 Properties=species:S:1:pos_bohr:R:3
H -16.89701984 -8.35987494 41.16201367
H 24.15238801 1.79270007 -51.20698313
2
frame=18 time_ps=0.090000 energy_hartree=-0.0386556449 Properties=species:S:1:pos_bohr:R:3
H -19.25976140 -7.86945672 42.01296496
H 23.87554203 0.69154700 -53.06518907
2
frame=19 time_ps=0.095000 energy_hartree=-0.0386556449 Properties=species:S:1:pos_bohr:R:3
H -21.14585252 -8.11889691 42.97507131
H 23.05555044 -0.96714053 -55.38006465
