2
frame=0 time_ps=0.000000 energy_hartree=-0.0630909068 Properties=species:S:1:pos_bohr:R:3
H -0.08190527 -0.13182140 0.04893398
H 0.04661672 0.14184188 1.34856800
2
frame=1 time_ps=0.005000 energy_hartree=-0.0383445074 Properties=species:S:1:pos_bohr:R:3
H -4.47662324 -5.94056735 -17.56940540
H 2.69547731 5.40347889 19.07680195
2
frame=2 time_ps=0.010000 energy_hartree=-0.0383445074 Properties=species:S:1:pos_bohr:R:3
H -8.39392990 -11.61077207 -29.93263494
H 4.72980882 9.65353345 32.63599996
2
frame=3 time_ps=0.015000 energy_hartree=-0.0383445074 Properties=species:S:1:pos_bohr:R:3
H -11.47300146 -14.67565775 -36.92661266
H 6.43737476 14.37117078 42.42264807
2
frame=4 time_ps=0.020000 energy_hartree=-0.0383445074 Properties=species:S:1:pos_bohr:R:3
H -11.06263262 -16.43836059 -41.23164643
H 7.26119193 16.78145664 48.26494417
2
frame=5 time_ps=0.025000 energy_hartree=-0.0383445074 Properties=species:S:1:pos_bohr:R:3
H -11.44731224 -16.12920867 -43.18339649
H 8.97993231 17.41477267 49.98044603
2
frame=6 time_ps=0.030000 energy_hartree=-0.0383445074 Properties=species:S:1:pos_bohr:R:3
H -11.85369466 -16.90181905 -44.42637310
H 10.82413259 17.33613801 51.21312497
2
frame=7 time_ps=0.035000 energy_hartree=-0.0383445074 Properties=species:S:1:pos_bohr:R:3
H -11.77918339 -17.21082500 -45.10773895
H 12.09652714 17.10185599 49.56870122
2
frame=8 time_ps=0.040000 energy_hartree=-0.0383445074 Properties=species:S:1:pos_bohr:R:3
H -11.81310318 -16.93434485 -44.92162748
H 13.48087061 17.03640790 49.04116613
2
frame=9 time_ps=0.045000 energy_hartree=-0.0383445074 Properties=species:S:1:pos_bohr:R:3
H -11.44701759 -17.29813537 -43.23174186
H 14.73664994 17.29391826 48.94614061
2
frame=10 time_ps=0.050000 energy_hartree=-0.0383445074 Properties=species:S:1:pos_bohr:R:3
H -11.23599995 -18.15839674 -41.82559917
H 15.49077443 16.90135048 49.31727142
2
frame=11 time_ps=0.055000 energy_hartree=-0.0383445074 Properties=species:S:1:pos_bohr:R:3
H -10.26630460 -18.58204317 -41.50797158
H 17.11630049 17.14558236 49.90180236
2
frame=12 time_ps=0.060000 energy_hartree=-0.0383445074 Properties=species:S:1:pos_bohr:R:3
H -8.30626359 -18.23497692 -41.29862276
H 19.69753154 17.51278261 51.40013753
2
frame=13 time_ps=0.065000 energy_hartree=-0.0383445074 Properties=species:S:1:pos_bohr:R:3
H -6.75750243 -18.22242471 -40.17151572
H 20.94612196 17.60710167 54.04000442
2
frame=14 time_ps=0.070000 energy_hartree=-0.0383445074 Properties=species:S:1:pos_bohr:R:3
H -5.77908452 -17.11207256 -40.99224080
H 21.36171263 17.45848823 55.64299958
2
frame=15 time_ps=0.075000 energy_hartree=-0.0383445074 Properties=species:S:1:pos_bohr:R:3
H -4.35705064 -16.34955260 -42.97939295
H 20.58884633 15.85417387 56.37955909
2
frame=16 time_ps=0.080000 energy_hartree=-0.0383445074 Properties=species:S:1:pos_bohr:R:3
H -2.30350380 -16.56455307 -43.48120367
H 18.03360096 15.52280103 56.75594867
2
frame=17 time_ps=0.085000 energy_hartree=-0.0383445074 Properties=species:S:1:pos_bohr:R:3
H -2.22897293 -15.57003084 -41.50362472
H 15.37340724 15.37499857 56.72545213
2
frame=18 time_ps=0.090000 energy_hartree=-0.0383445074 Properties=species:S:1:pos_bohr:R:3
H -3.12227373 -14.14983744 -39.59169209
H 14.37886069 15.40773883 57.10871884
2
frame=19 time_ps=0.095000 energy_hartree=-0.0383445074 Properties=species:S:1:pos_bohr:R:3
H -5.78551111 -12.81371408 -39.59418631
H 13.83826248 14.05922366 58.77641238
